     Program PWSCF v.5.1rc2 (svn rev. ) starts on 10Feb2018 at 19:47:34

     Current dimensions of program PWSCF are:
     Max number of different atomic species (ntypx) = 10
     Max number of k-points (npk) =  40000
     Max angular momentum in pseudopotentials (lmaxx) =  3

     IMPORTANT: XC functional enforced from input :
     Exchange-correlation      = BEEF ( 1  4 27 13 2)
     Any further DFT definition will be discarded
     Please, verify this is what you really want

     Subspace diagonalization in iterative solution of the eigenvalue problem:
     a serial algorithm will be used

     Generating pointlists ...
     new r_m :   0.4125 (alat units)  0.7795 (a.u.) for type    1
     new r_m :   0.3996 (alat units)  0.7551 (a.u.) for type    2
     new r_m :   0.3996 (alat units)  0.7551 (a.u.) for type    3

     bravais-lattice index     =            0
     lattice parameter (alat)  =       1.8897  a.u.
     unit-cell volume          =    7990.9933 (a.u.)^3
     number of atoms/cell      =           50
     number of atomic types    =            3
     number of electrons       =       391.00
     number of Kohn-Sham states=          295
     kinetic-energy cutoff     =      40.4243  Ry
     charge density cutoff     =     404.2426  Ry
     convergence threshold     =      7.3E-07
     mixing beta               =       0.1000
     number of iterations used =           10  plain     mixing
     Exchange-correlation      = BEEF ( 1  4 27 13 2)
     nstep                     =           50

     celldm(1)=   1.889726  celldm(2)=   0.000000  celldm(3)=   0.000000
     celldm(4)=   0.000000  celldm(5)=   0.000000  celldm(6)=   0.000000

     crystal axes: (cart. coord. in units of alat)
               a(1) = (   6.590708   0.000000   0.000000 )
               a(2) = (   0.000000   5.950229   0.000000 )
               a(3) = (   0.000000   0.000000  30.195235 )

     reciprocal axes: (cart. coord. in units 2 pi/alat)
               b(1) = (  0.151729  0.000000  0.000000 )
               b(2) = (  0.000000  0.168061  0.000000 )
               b(3) = (  0.000000  0.000000  0.033118 )

     PseudoPot. # 1 for Ti read from file:
     /home/alatimer/bin/psp/esp_psp_w_gbrvRu/Ti.UPF
     MD5 check sum: 8e4df49b7f0d34bbd5052bf3f5ea0213
     Pseudo is Ultrasoft, Zval = 12.0
     Generated by new atomic code, or converted to UPF format
     Using radial grid of  851 points,  6 beta functions with:
                l(1) =   0
                l(2) =   0
                l(3) =   1
                l(4) =   1
                l(5) =   2
                l(6) =   2
     Q(r) pseudized with  8 coefficients,  rinner =    1.000   1.000   1.000
                                                       1.000   1.000

     PseudoPot. # 2 for  O read from file:
     /home/alatimer/bin/psp/esp_psp_w_gbrvRu/O.UPF
     MD5 check sum: e057bbcf3229fb5d8c36c0c92f9568b4
     Pseudo is Ultrasoft + core correction, Zval =  6.0
     Generated using "atomic" code by A. Dal Corso  v.5.0.2 svn rev. 9415
     Using radial grid of 1095 points,  4 beta functions with:
                l(1) =   0
                l(2) =   0
                l(3) =   1
                l(4) =   1
     Q(r) pseudized with 0 coefficients

     PseudoPot. # 3 for  H read from file:
     /home/alatimer/bin/psp/esp_psp_w_gbrvRu/H.UPF
     MD5 check sum: bd57da0722753ddfd9833a65b40bb853
     Pseudo is Ultrasoft, Zval =  1.0
     Generated using "atomic" code by A. Dal Corso  v.5.0.2 svn rev. 9415
     Using radial grid of  929 points,  2 beta functions with:
                l(1) =   0
                l(2) =   0
     Q(r) pseudized with 0 coefficients

     vdW kernel table read from file vdW_kernel_table
     MD5 check sum: 095c7af220d748ca6e76c0b4c6cfb241

     atomic species   valence    mass     pseudopotential
        Ti1           12.00    47.88000     Ti( 1.00)
        O1             6.00    15.99940      O( 1.00)
        H1             1.00     1.00794      H( 1.00)

     Starting magnetic structure
     atomic species   magnetization
        Ti1          0.250
        O1           0.500
        H1           0.000

     No symmetry found

   Cartesian axes

     site n.     atom                  positions (alat units)
         1           Ti1 tau(   1) = (   1.6476770   0.7437786   2.6545865  )
         2           O1  tau(   2) = (   1.6476770   2.2313359   3.9361215  )
         3           Ti1 tau(   3) = (   1.6476770   2.2313359   5.9499405  )
         4           O1  tau(   4) = (   0.3661420   0.7437786   5.9499405  )
         5           Ti1 tau(   5) = (   1.6423058   0.7993178   9.2289010  )
         6           O1  tau(   6) = (   1.6406404   2.2313359  10.4535548  )
         7           Ti1 tau(   7) = (   1.6373334   2.2313359  13.0586656  )
         8           O1  tau(   8) = (   0.3716334   0.7231912  12.7369480  )
         9           Ti1 tau(   9) = (   1.6476770   3.7188931   2.6545865  )
        10           O1  tau(  10) = (   1.6476770   5.2064503   3.9361215  )
        11           Ti1 tau(  11) = (   1.6476770   5.2064503   5.9499405  )
        12           O1  tau(  12) = (   0.3661420   3.7188931   5.9499405  )
        13           Ti1 tau(  13) = (   1.6423059   3.6633529   9.2289023  )
        14           O1  tau(  14) = (   1.6396028   5.2064504  10.5374954  )
        15           Ti1 tau(  15) = (   1.6366369   5.2064504  12.3426698  )
        16           O1  tau(  16) = (   0.3716333   3.7394800  12.7369475  )
        17           O1  tau(  17) = (   1.6476770   2.2313359   1.3730516  )
        18           Ti1 tau(  18) = (   4.9430310   2.2313359   2.6545865  )
        19           O1  tau(  19) = (   4.9430310   2.2313359   4.6684056  )
        20           O1  tau(  20) = (   6.2245660   0.7437786   2.6545865  )
        21           O1  tau(  21) = (   3.6614961   0.7437786   2.6545865  )
        22           Ti1 tau(  22) = (   4.9430310   0.7437786   5.9499405  )
        23           O1  tau(  23) = (   1.6444126   2.2313359   7.9291264  )
        24           O1  tau(  24) = (   4.9430310   2.2313359   7.2314755  )
        25           O1  tau(  25) = (   2.9292120   0.7437786   5.9499405  )
        26           Ti1 tau(  26) = (   4.9374203   2.2313360   9.4425711  )
        27           O1  tau(  27) = (   4.9384755   2.2313359  11.2756104  )
        28           O1  tau(  28) = (   6.2333856   0.7395591   9.2701299  )
        29           O1  tau(  29) = (   3.6424277   0.7403199   9.2676498  )
        30           Ti1 tau(  30) = (   4.9388558   0.7382018  12.7898683  )
        31           O1  tau(  31) = (   4.8884434   2.2313358  13.8602379  )
        32           O1  tau(  32) = (   2.8718067   0.7224686  12.6922084  )
        33           O1  tau(  33) = (   1.6476770   5.2064503   1.3730516  )
        34           Ti1 tau(  34) = (   4.9430310   5.2064503   2.6545865  )
        35           O1  tau(  35) = (   4.9430310   5.2064503   4.6684056  )
        36           O1  tau(  36) = (   6.2245660   3.7188931   2.6545865  )
        37           O1  tau(  37) = (   3.6614961   3.7188931   2.6545865  )
        38           Ti1 tau(  38) = (   4.9430310   3.7188931   5.9499405  )
        39           O1  tau(  39) = (   1.6444418   5.2064506   7.9393866  )
        40           O1  tau(  40) = (   4.9430310   5.2064503   7.2314755  )
        41           O1  tau(  41) = (   2.9292120   3.7188931   5.9499405  )
        42           Ti1 tau(  42) = (   4.9387790   5.2064503   9.4241858  )
        43           O1  tau(  43) = (   4.9379278   5.2064504  11.2756977  )
        44           O1  tau(  44) = (   6.2333855   3.7231127   9.2701299  )
        45           O1  tau(  45) = (   3.6424278   3.7223520   9.2676499  )
        46           Ti1 tau(  46) = (   4.9388558   3.7244696  12.7898683  )
        47           O1  tau(  47) = (   4.8902929   5.2064502  13.8618696  )
        48           O1  tau(  48) = (   2.8718066   3.7402036  12.6922086  )
        49           O1  tau(  49) = (   1.7618258   2.2613358  14.8494317  )
        50           H1  tau(  50) = (   2.6007197   2.2313366  15.3328018  )

     number of k points=    40  Fermi-Dirac smearing, width (Ry)=  0.0073
                       cart. coord. in units 2pi/alat
        k(    1) = (   0.0000000   0.0000000   0.0000000), wk =   0.0277778
        k(    2) = (   0.0000000   0.0280101   0.0000000), wk =   0.0555556
        k(    3) = (   0.0000000   0.0560203   0.0000000), wk =   0.0555556
        k(    4) = (   0.0000000  -0.0840304   0.0000000), wk =   0.0277778
        k(    5) = (   0.0252881   0.0000000   0.0000000), wk =   0.0555556
        k(    6) = (   0.0252881   0.0280101   0.0000000), wk =   0.0555556
        k(    7) = (   0.0252881   0.0560203   0.0000000), wk =   0.0555556
        k(    8) = (   0.0252881  -0.0840304   0.0000000), wk =   0.0555556
        k(    9) = (   0.0505763   0.0000000   0.0000000), wk =   0.0555556
        k(   10) = (   0.0505763   0.0280101   0.0000000), wk =   0.0555556
        k(   11) = (   0.0505763   0.0560203   0.0000000), wk =   0.0555556
        k(   12) = (   0.0505763  -0.0840304   0.0000000), wk =   0.0555556
        k(   13) = (  -0.0758644   0.0000000   0.0000000), wk =   0.0277778
        k(   14) = (  -0.0758644   0.0280101   0.0000000), wk =   0.0555556
        k(   15) = (  -0.0758644   0.0560203   0.0000000), wk =   0.0555556
        k(   16) = (  -0.0758644  -0.0840304   0.0000000), wk =   0.0277778
        k(   17) = (  -0.0252881   0.0280101   0.0000000), wk =   0.0555556
        k(   18) = (  -0.0252881   0.0560203   0.0000000), wk =   0.0555556
        k(   19) = (  -0.0505763   0.0280101   0.0000000), wk =   0.0555556
        k(   20) = (  -0.0505763   0.0560203   0.0000000), wk =   0.0555556
        k(   21) = (   0.0000000   0.0000000   0.0000000), wk =   0.0277778
        k(   22) = (   0.0000000   0.0280101   0.0000000), wk =   0.0555556
        k(   23) = (   0.0000000   0.0560203   0.0000000), wk =   0.0555556
        k(   24) = (   0.0000000  -0.0840304   0.0000000), wk =   0.0277778
        k(   25) = (   0.0252881   0.0000000   0.0000000), wk =   0.0555556
        k(   26) = (   0.0252881   0.0280101   0.0000000), wk =   0.0555556
        k(   27) = (   0.0252881   0.0560203   0.0000000), wk =   0.0555556
        k(   28) = (   0.0252881  -0.0840304   0.0000000), wk =   0.0555556
        k(   29) = (   0.0505763   0.0000000   0.0000000), wk =   0.0555556
        k(   30) = (   0.0505763   0.0280101   0.0000000), wk =   0.0555556
        k(   31) = (   0.0505763   0.0560203   0.0000000), wk =   0.0555556
        k(   32) = (   0.0505763  -0.0840304   0.0000000), wk =   0.0555556
        k(   33) = (  -0.0758644   0.0000000   0.0000000), wk =   0.0277778
        k(   34) = (  -0.0758644   0.0280101   0.0000000), wk =   0.0555556
        k(   35) = (  -0.0758644   0.0560203   0.0000000), wk =   0.0555556
        k(   36) = (  -0.0758644  -0.0840304   0.0000000), wk =   0.0277778
        k(   37) = (  -0.0252881   0.0280101   0.0000000), wk =   0.0555556
        k(   38) = (  -0.0252881   0.0560203   0.0000000), wk =   0.0555556
[...]
     atom:   33    charge:    1.9197    magn:    0.0010    constr:    0.0000
     atom:   34    charge:    3.1239    magn:    0.0000    constr:    0.0000
     atom:   35    charge:    1.9420    magn:    0.0000    constr:    0.0000
     atom:   36    charge:    1.9484    magn:    0.0000    constr:    0.0000
     atom:   37    charge:    1.9484    magn:    0.0000    constr:    0.0000
     atom:   38    charge:    3.1199    magn:    0.0000    constr:    0.0000
     atom:   39    charge:    1.9474    magn:   -0.0001    constr:    0.0000
     atom:   40    charge:    1.9368    magn:   -0.0002    constr:    0.0000
     atom:   41    charge:    1.9515    magn:   -0.0000    constr:    0.0000
     atom:   42    charge:    3.1217    magn:    0.0001    constr:    0.0000
     atom:   43    charge:    1.9394    magn:   -0.0002    constr:    0.0000
     atom:   44    charge:    1.9494    magn:   -0.0002    constr:    0.0000
     atom:   45    charge:    1.9472    magn:   -0.0002    constr:    0.0000
     atom:   46    charge:    3.1196    magn:    0.0000    constr:    0.0000
     atom:   47    charge:    1.9474    magn:   -0.0001    constr:    0.0000
     atom:   48    charge:    1.9471    magn:   -0.0001    constr:    0.0000
     atom:   49    charge:    1.9505    magn:    0.0000    constr:    0.0000
     atom:   50    charge:    0.3949    magn:   -0.0000    constr:    0.0000

     total energy              =   -3005.55732421 Ry
     Harris-Foulkes estimate   =   -3005.56989073 Ry
     estimated scf accuracy    <       0.08537803 Ry

     total magnetization       =     0.00 Bohr mag/cell
     absolute magnetization    =     0.01 Bohr mag/cell

     iteration #  2     ecut=    40.42 Ry     beta=0.10
     Davidson diagonalization with overlap
     ethr =  2.18E-05,  avg # of iterations =  2.0

[...]

     total energy              =   -3005.52971415 Ry
     Harris-Foulkes estimate   =   -3005.52971408 Ry
     estimated scf accuracy    <       0.00000100 Ry

[...]

     iteration # 12     ecut=    40.42 Ry     beta=0.10
     Davidson diagonalization with overlap
     ethr =  2.55E-10,  avg # of iterations =  2.0

     negative rho (up, down):  1.350E-02 1.350E-02

     Magnetic moment per site:
     atom:    1    charge:    3.1244    magn:   -0.0001    constr:    0.0000
     atom:    2    charge:    1.9465    magn:    0.0001    constr:    0.0000
     atom:    3    charge:    3.1200    magn:   -0.0000    constr:    0.0000
     atom:    4    charge:    1.9515    magn:    0.0000    constr:    0.0000
     atom:    5    charge:    3.1144    magn:    0.0000    constr:    0.0000
     atom:    6    charge:    1.9404    magn:   -0.0000    constr:    0.0000
     atom:    7    charge:    3.1162    magn:    0.0000    constr:    0.0000
     atom:    8    charge:    1.9463    magn:   -0.0000    constr:    0.0000
     atom:    9    charge:    3.1244    magn:   -0.0001    constr:    0.0000
     atom:   10    charge:    1.9466    magn:    0.0001    constr:    0.0000
     atom:   11    charge:    3.1198    magn:   -0.0000    constr:    0.0000
     atom:   12    charge:    1.9515    magn:    0.0000    constr:    0.0000
     atom:   13    charge:    3.1144    magn:    0.0000    constr:    0.0000
     atom:   14    charge:    1.9542    magn:   -0.0000    constr:    0.0000
     atom:   15    charge:    3.1165    magn:    0.0000    constr:    0.0000
     atom:   16    charge:    1.9463    magn:   -0.0000    constr:    0.0000
     atom:   17    charge:    1.9197    magn:    0.0004    constr:    0.0000
     atom:   18    charge:    3.1239    magn:   -0.0000    constr:    0.0000
     atom:   19    charge:    1.9419    magn:    0.0000    constr:    0.0000
     atom:   20    charge:    1.9484    magn:    0.0000    constr:    0.0000
     atom:   21    charge:    1.9484    magn:    0.0000    constr:    0.0000
     atom:   22    charge:    3.1199    magn:    0.0000    constr:    0.0000
     atom:   23    charge:    1.9555    magn:   -0.0000    constr:    0.0000
     atom:   24    charge:    1.9364    magn:   -0.0000    constr:    0.0000
     atom:   25    charge:    1.9515    magn:    0.0000    constr:    0.0000
     atom:   26    charge:    3.1143    magn:    0.0000    constr:    0.0000
     atom:   27    charge:    1.9395    magn:   -0.0001    constr:    0.0000
     atom:   28    charge:    1.9494    magn:   -0.0000    constr:    0.0000
     atom:   29    charge:    1.9472    magn:   -0.0000    constr:    0.0000
     atom:   30    charge:    3.1193    magn:    0.0000    constr:    0.0000
     atom:   31    charge:    1.9474    magn:   -0.0000    constr:    0.0000
     atom:   32    charge:    1.9463    magn:   -0.0000    constr:    0.0000
     atom:   33    charge:    1.9196    magn:    0.0004    constr:    0.0000
     atom:   34    charge:    3.1239    magn:   -0.0000    constr:    0.0000
     atom:   35    charge:    1.9419    magn:    0.0000    constr:    0.0000
     atom:   36    charge:    1.9484    magn:    0.0000    constr:    0.0000
     atom:   37    charge:    1.9484    magn:    0.0000    constr:    0.0000
     atom:   38    charge:    3.1199    magn:    0.0000    constr:    0.0000
     atom:   39    charge:    1.9474    magn:   -0.0000    constr:    0.0000
     atom:   40    charge:    1.9368    magn:   -0.0000    constr:    0.0000
     atom:   41    charge:    1.9515    magn:    0.0000    constr:    0.0000
     atom:   42    charge:    3.1217    magn:    0.0000    constr:    0.0000
     atom:   43    charge:    1.9394    magn:   -0.0000    constr:    0.0000
     atom:   44    charge:    1.9494    magn:   -0.0000    constr:    0.0000
     atom:   45    charge:    1.9471    magn:   -0.0000    constr:    0.0000
     atom:   46    charge:    3.1193    magn:    0.0000    constr:    0.0000
     atom:   47    charge:    1.9474    magn:   -0.0000    constr:    0.0000
     atom:   48    charge:    1.9463    magn:   -0.0000    constr:    0.0000
     atom:   49    charge:    1.9552    magn:   -0.0000    constr:    0.0000
     atom:   50    charge:    0.3946    magn:   -0.0000    constr:    0.0000

     End of self-consistent calculation

 ------ SPIN UP ------------

          k = 0.0000 0.0000 0.0000 ( 34665 PWs)   bands (ev):

   -58.5101 -58.4751 -57.5989 -57.5693 -57.5632 -57.4866 -57.4734 -57.4338
   -57.3364 -57.3053 -57.2678 -57.2321 -57.1229 -57.0876 -57.0182 -56.9802
   -34.9550 -34.7791 -34.7503 -34.7164 -34.6214 -34.5646 -34.0981 -34.0538
   -34.0158 -33.8727 -33.8518 -33.7935 -33.7721 -33.7662 -33.7568 -33.7480
   -33.7427 -33.7256 -33.7049 -33.6987 -33.6961 -33.6755 -33.6649 -33.6605
   -33.6540 -33.6447 -33.6385 -33.5966 -33.5547 -33.5516 -33.5416 -33.5052
   -33.5004 -33.4933 -33.4638 -33.4496 -33.4382 -33.4369 -33.4172 -33.3887
   -33.3413 -33.2954 -33.2516 -33.2512 -33.2314 -33.2070 -33.1499 -33.0991
   -18.6738 -18.2585 -18.2205 -18.0134 -17.9156 -17.7473 -17.7337 -17.6313
   -17.5956 -17.5722 -17.4611 -17.2647 -17.2227 -17.2162 -17.1521 -17.0538
   -17.0330 -17.0115 -16.9435 -16.9020 -16.8535 -16.8183 -16.8117 -16.7878
   -16.6942 -16.6321 -16.6179 -16.5150 -16.5007 -16.3509 -16.2876 -15.8029
   -15.7426  -6.2519  -5.9780  -5.6969  -5.5006  -5.4190  -5.3170  -5.1913
    -5.1688  -5.0821  -4.9508  -4.8593  -4.8038  -4.7910  -4.7191  -4.6445
    -4.6162  -4.5478  -4.5343  -4.4212  -4.4183  -4.3625  -4.3468  -4.2522
    -4.2284  -4.1739  -4.1114  -4.0989  -4.0921  -4.0799  -3.9979  -3.9819
    -3.9138  -3.8423  -3.8364  -3.7464  -3.7382  -3.7318  -3.6235  -3.6189
    -3.5873  -3.4748  -3.4521  -3.4129  -3.3014  -3.1325  -3.0939  -3.0405
    -2.9773  -2.9618  -2.8994  -2.8857  -2.8813  -2.7721  -2.7544  -2.7396
    -2.6487  -2.5953  -2.5116  -2.4359  -2.4323  -2.3978  -2.3396  -2.2890
    -2.2364  -2.1781  -2.1741  -2.1254  -2.0833  -2.0780  -1.9314  -1.8485
    -1.8322  -1.8274  -1.8178  -1.7148  -1.6260  -1.5698  -1.5586  -1.5234
    -1.5211  -1.5050  -1.4537  -1.3702  -1.3493  -1.3285  -1.3130  -1.2894
    -1.2795  -1.1616  -1.0715  -0.9915  -0.9559  -0.8855  -0.8748  -0.8222
    -0.7554  -0.7194  -0.6693  -0.3757   0.8214   0.9188   1.2117   1.4946
     1.6021   1.6882   1.7175   1.8101   1.8421   1.9189   1.9526   2.0199
     2.0254   2.1710   2.1854   2.2572   2.2824   2.3116   2.3919   2.4156
     2.4636   2.4708   2.5072   2.5208   2.6024   2.6257   2.6710   2.7172
     2.7437   2.7501   2.7976   2.8285   2.8557   2.8740   2.8826   2.9940
     3.0083   3.0335   3.2079   3.2101   3.2375   3.2482   3.3473   3.4062
     3.4403   3.4990   3.5936   3.7441   3.8769   3.8910   4.0779   4.2696
     4.4016   4.4795   4.5028   4.6459   4.7914   4.9235   4.9612   5.0578
     5.1865   5.2000   5.2301   5.2455   5.3363   5.3386   5.3514   5.4573
     5.4777   5.5257   5.6903   5.7095   5.7879   5.8779   5.9036   5.9089
     5.9986   6.0382   6.2245   6.2881   6.3420   6.4100   6.5823   6.6086
     7.1058   7.7898   7.9896   8.0199   8.2195   8.2392   8.5743   8.7199
     8.7985   9.0636   9.1868   9.2279   9.3567   9.4745   9.6167

[...]

          k =-0.0759 0.0000 0.0000 ( 34758 PWs)   bands (ev):

[...]

 ------ SPIN DOWN ----------

[...]

          k = 0.0506-0.0840 0.0000 ( 34628 PWs)   bands (ev):

[...]

          k =-0.0506 0.0560 0.0000 ( 34596 PWs)   bands (ev):

   -58.5015 -58.4839 -57.5898 -57.5720 -57.5665 -57.4896 -57.4659 -57.4411
   -57.3315 -57.3101 -57.2595 -57.2403 -57.1145 -57.0969 -57.0087 -56.9896
   -34.8606 -34.7719 -34.7574 -34.6911 -34.6650 -34.6449 -34.0028 -33.9675
   -33.9329 -33.8288 -33.8278 -33.8042 -33.7829 -33.7819 -33.7808 -33.7704
   -33.7485 -33.7380 -33.7143 -33.7090 -33.7033 -33.6828 -33.6715 -33.6702
   -33.6569 -33.6210 -33.6203 -33.6111 -33.5801 -33.5191 -33.5003 -33.4891
   -33.4886 -33.4803 -33.4697 -33.4597 -33.4571 -33.4476 -33.4443 -33.4316
   -33.3195 -33.2888 -33.2747 -33.2515 -33.2504 -33.2353 -33.2243 -33.1980
   -18.3110 -18.2203 -18.0213 -17.9166 -17.8212 -17.8008 -17.7636 -17.5887
   -17.5745 -17.4358 -17.4210 -17.3103 -17.2863 -17.1731 -17.1271 -17.0729
   -17.0425 -17.0290 -17.0187 -16.9606 -16.9469 -16.9208 -16.8171 -16.7891
   -16.7329 -16.7188 -16.6462 -16.6296 -16.6233 -16.4336 -16.4036 -15.8419
   -15.8204  -5.9691  -5.5042  -5.2067  -5.1454  -5.1374  -4.9858  -4.9800
    -4.9150  -4.8436  -4.7360  -4.7146  -4.7042  -4.6212  -4.5982  -4.5900
    -4.5581  -4.5341  -4.5214  -4.4467  -4.4032  -4.3786  -4.3567  -4.3309
    -4.3036  -4.2487  -4.2296  -4.1969  -4.1454  -4.1215  -4.0290  -4.0007
    -3.8978  -3.8196  -3.7919  -3.7268  -3.6625  -3.6231  -3.5233  -3.4709
    -3.4404  -3.3821  -3.3381  -3.2966  -3.2869  -3.2105  -3.1798  -3.1687
    -3.1501  -3.0320  -2.9705  -2.9560  -2.9259  -2.8436  -2.8082  -2.7768
    -2.7361  -2.6841  -2.6210  -2.6111  -2.5838  -2.5657  -2.5078  -2.4498
    -2.3854  -2.3644  -2.3395  -2.3333  -2.2683  -2.2259  -2.2024  -2.1726
    -2.1359  -2.0507  -1.9995  -1.9276  -1.8672  -1.7816  -1.7555  -1.7462
    -1.7262  -1.6539  -1.6396  -1.5692  -1.5058  -1.4226  -1.3819  -1.3096
    -1.2299  -1.2104  -1.1300  -1.0833  -1.0458  -0.9540  -0.9349  -0.9022
    -0.8752  -0.8560  -0.7464  -0.6703   1.1049   1.2938   1.4448   1.4650
     1.6500   1.8005   1.8261   1.8647   2.0095   2.0414   2.1429   2.1590
     2.2053   2.2413   2.3366   2.3656   2.4201   2.4626   2.5116   2.5256
     2.5484   2.6058   2.6253   2.6694   2.6753   2.7169   2.7668   2.8047
     2.8309   2.8596   2.8906   2.9737   2.9838   2.9990   3.0320   3.0469
     3.0822   3.1221   3.1599   3.1652   3.2647   3.2838   3.3039   3.3641
     3.4422   3.4994   3.5379   3.6049   3.6352   3.7229   3.9504   4.2540
     4.4001   4.4141   4.5132   4.5788   4.6629   4.7000   4.7905   4.9182
     5.0172   5.1214   5.1510   5.2009   5.3858   5.4246   5.4580   5.4959
     5.6494   5.6868   5.7640   5.7891   5.8641   5.8868   5.9369   5.9782
     6.0945   6.1355   6.2117   6.2478   6.3441   6.4408   6.5963   6.6250
     7.0618   7.3035   7.4438   7.6029   7.8863   7.9475   8.0276   8.3825
     8.5891   8.6772   8.7935   8.9093   9.2080   9.2368   9.3853

     the Fermi energy is    -0.4917 ev

!    total energy              =   -3005.52971443 Ry
     Harris-Foulkes estimate   =   -3005.52971424 Ry
     estimated scf accuracy    <       0.00000069 Ry

     The total energy is the sum of the following terms:

     one-electron contribution =  -41015.22252938 Ry
     hartree contribution      =   20573.32232566 Ry
     xc contribution           =    -546.72975484 Ry
     ewald contribution        =   17983.11989021 Ry
     smearing contrib. (-TS)   =      -0.01964608 Ry

     total magnetization       =     0.00 Bohr mag/cell
     absolute magnetization    =     0.00 Bohr mag/cell

     convergence has been achieved in  12 iterations

     Forces acting on atoms (Ry/au):

     negative rho (up, down):  1.350E-02 1.350E-02
     atom    1 type  1   force =     0.00001037   -0.00108529   -0.10417567
     atom    2 type  2   force =     0.00001593    0.00002801    0.03814766
     atom    3 type  1   force =    -0.00014576    0.00006380   -0.02284031
     atom    4 type  2   force =    -0.00618679    0.00314398   -0.00578319
     atom    5 type  1   force =     0.00029451    0.00042554   -0.00093601
     atom    6 type  2   force =    -0.00039434    0.00013676   -0.00006492
     atom    7 type  1   force =     0.00098200    0.00164499   -0.00058426
     atom    8 type  2   force =     0.00009560    0.00025378    0.00027557
     atom    9 type  1   force =    -0.00003047    0.00109391   -0.10418776
     atom   10 type  2   force =    -0.00001515   -0.00003997    0.03430566
     atom   11 type  1   force =    -0.00012040    0.00001294    0.01132726
     atom   12 type  2   force =    -0.00616398   -0.00313955   -0.00578785
     atom   13 type  1   force =     0.00025819   -0.00037833   -0.00081385
     atom   14 type  2   force =    -0.00075095    0.00007722   -0.00106077
     atom   15 type  1   force =     0.00044027   -0.00084513    0.00121355
     atom   16 type  2   force =     0.00023272   -0.00032439   -0.00069775
     atom   17 type  2   force =    -0.00001730   -0.00000528    0.06629784
     atom   18 type  1   force =     0.00011038    0.00001297    0.13064985
     atom   19 type  2   force =    -0.00017746    0.00003967   -0.08414930
     atom   20 type  2   force =    -0.05790360    0.00009756   -0.03629945
     atom   21 type  2   force =     0.05799984    0.00018146   -0.03622448
     atom   22 type  1   force =    -0.00005641    0.00084111    0.07795940
     atom   23 type  2   force =    -0.00018412    0.00004554    0.00142648
     atom   24 type  2   force =    -0.00022408    0.00010985   -0.03628711
     atom   25 type  2   force =     0.00591922    0.00311253   -0.00550402
     atom   26 type  1   force =    -0.00039230    0.00007742    0.00026319
     atom   27 type  2   force =     0.00032646    0.00004643    0.00143832
     atom   28 type  2   force =    -0.00021441    0.00039831   -0.00038358
     atom   29 type  2   force =    -0.00036253    0.00013639    0.00009368
     atom   30 type  1   force =     0.00020288    0.00064856    0.00072961
     atom   31 type  2   force =    -0.00039981   -0.00033307   -0.00029589
     atom   32 type  2   force =    -0.00024275    0.00038411    0.00094741
     atom   33 type  2   force =    -0.00003012    0.00000780    0.06630548
     atom   34 type  1   force =     0.00007818   -0.00001316    0.13047535
     atom   35 type  2   force =    -0.00014228    0.00000880   -0.08357344
     atom   36 type  2   force =    -0.05789135   -0.00018763   -0.03624237
     atom   37 type  2   force =     0.05797055   -0.00015844   -0.03618878
     atom   38 type  1   force =    -0.00003205   -0.00089460    0.07797282
     atom   39 type  2   force =    -0.00010268    0.00002012   -0.00021060
     atom   40 type  2   force =     0.00007213    0.00004374   -0.03531340
     atom   41 type  2   force =     0.00591422   -0.00306190   -0.00549759
     atom   42 type  1   force =    -0.00058935    0.00003751    0.00090762
     atom   43 type  2   force =     0.00042607    0.00005332    0.00163313
     atom   44 type  2   force =    -0.00022762   -0.00032661   -0.00040501
     atom   45 type  2   force =    -0.00035487   -0.00018522    0.00008052
     atom   46 type  1   force =    -0.00036829   -0.00071998    0.00065356
     atom   47 type  2   force =     0.00151961    0.00022114    0.00046171
     atom   48 type  2   force =     0.00095319    0.00124035   -0.00127509
     atom   49 type  2   force =     0.00221119   -0.00319581    0.00203722
     atom   50 type  3   force =    -0.00231229    0.00024876   -0.00082040

     Total force =     0.340171     Total SCF correction =     0.003861
 !ASE

     Writing output data file calc.save

     General routines

     Parallel routines

   This run was terminated on:  20:44: 6  10Feb2018

   JOB DONE.