     Program PWSCF v.5.1rc2 (svn rev. ) starts on 26Feb2018 at 14: 0: 6

     Current dimensions of program PWSCF are:
     Max number of different atomic species (ntypx) = 10
     Max number of k-points (npk) =  40000
     Max angular momentum in pseudopotentials (lmaxx) =  3

     IMPORTANT: XC functional enforced from input :
     Exchange-correlation      = BEEF ( 1  4 27 13 2)
     Any further DFT definition will be discarded
     Please, verify this is what you really want

     Subspace diagonalization in iterative solution of the eigenvalue problem:
     a serial algorithm will be used

     Generating pointlists ...
     new r_m :   0.4125 (alat units)  0.7795 (a.u.) for type    1
     new r_m :   0.4125 (alat units)  0.7795 (a.u.) for type    2
     new r_m :   0.4125 (alat units)  0.7795 (a.u.) for type    3
     new r_m :   0.4125 (alat units)  0.7795 (a.u.) for type    4

     bravais-lattice index     =            0
     lattice parameter (alat)  =       1.8897  a.u.
     unit-cell volume          =    7990.9933 (a.u.)^3
     number of atoms/cell      =           54
     number of atomic types    =            4
     number of electrons       =       398.00
     number of Kohn-Sham states=          299
     kinetic-energy cutoff     =      40.4243  Ry
     charge density cutoff     =     404.2426  Ry
     convergence threshold     =      7.3E-07
     mixing beta               =       0.1000
     number of iterations used =           10  plain     mixing
     Exchange-correlation      = BEEF ( 1  4 27 13 2)
     nstep                     =           50

     celldm(1)=   1.889726  celldm(2)=   0.000000  celldm(3)=   0.000000
     celldm(4)=   0.000000  celldm(5)=   0.000000  celldm(6)=   0.000000

     crystal axes: (cart. coord. in units of alat)
               a(1) = (   6.590708   0.000000   0.000000 )
               a(2) = (   0.000000   5.950229   0.000000 )
               a(3) = (   0.000000   0.000000  30.195235 )

     reciprocal axes: (cart. coord. in units 2 pi/alat)
               b(1) = (  0.151729  0.000000  0.000000 )
               b(2) = (  0.000000  0.168061  0.000000 )
               b(3) = (  0.000000  0.000000  0.033118 )

     PseudoPot. # 1 for Ti read from file:
     /home/alatimer/bin/psp/esp_psp_w_gbrvRu/Ti.UPF
     MD5 check sum: 8e4df49b7f0d34bbd5052bf3f5ea0213
     Pseudo is Ultrasoft, Zval = 12.0
     Generated by new atomic code, or converted to UPF format
     Using radial grid of  851 points,  6 beta functions with:
                l(1) =   0
                l(2) =   0
                l(3) =   1
                l(4) =   1
                l(5) =   2
                l(6) =   2
     Q(r) pseudized with  8 coefficients,  rinner =    1.000   1.000   1.000
                                                       1.000   1.000

     PseudoPot. # 2 for  O read from file:
     /home/alatimer/bin/psp/esp_psp_w_gbrvRu/O.UPF
     MD5 check sum: e057bbcf3229fb5d8c36c0c92f9568b4
     Pseudo is Ultrasoft + core correction, Zval =  6.0
     Generated using "atomic" code by A. Dal Corso  v.5.0.2 svn rev. 9415
     Using radial grid of 1095 points,  4 beta functions with:
                l(1) =   0
                l(2) =   0
                l(3) =   1
                l(4) =   1
     Q(r) pseudized with 0 coefficients

     PseudoPot. # 3 for  C read from file:
     /home/alatimer/bin/psp/esp_psp_w_gbrvRu/C.UPF
     MD5 check sum: ab446d787031eba755f1d5ee46644bb0
     Pseudo is Ultrasoft + core correction, Zval =  4.0
     Generated using "atomic" code by A. Dal Corso  v.5.0.2 svn rev. 9415
     Using radial grid of 1073 points,  4 beta functions with:
                l(1) =   0
                l(2) =   0
                l(3) =   1
                l(4) =   1
     Q(r) pseudized with 0 coefficients

     PseudoPot. # 4 for  H read from file:
     /home/alatimer/bin/psp/esp_psp_w_gbrvRu/H.UPF
     MD5 check sum: bd57da0722753ddfd9833a65b40bb853
     Pseudo is Ultrasoft, Zval =  1.0
     Generated using "atomic" code by A. Dal Corso  v.5.0.2 svn rev. 9415
     Using radial grid of  929 points,  2 beta functions with:
                l(1) =   0
                l(2) =   0
     Q(r) pseudized with 0 coefficients

     vdW kernel table read from file vdW_kernel_table
     MD5 check sum: 095c7af220d748ca6e76c0b4c6cfb241

     atomic species   valence    mass     pseudopotential
        Ti1           12.00    47.88000     Ti( 1.00)
        O1             6.00    15.99940      O( 1.00)
        C1             4.00    12.01100      C( 1.00)
        H1             1.00     1.00794      H( 1.00)

     Starting magnetic structure
     atomic species   magnetization
        Ti1          0.250
        O1           0.500
        C1           0.750
        H1           0.000

     No symmetry found

   Cartesian axes

     site n.     atom                  positions (alat units)
         1           Ti1 tau(   1) = (   1.6476770   0.7437786   2.6545865  )
         2           O1  tau(   2) = (   1.6476770   2.2313359   3.9361215  )
         3           Ti1 tau(   3) = (   1.6476770   2.2313359   5.9499405  )
         4           O1  tau(   4) = (   0.3661420   0.7437786   5.9499405  )
         5           Ti1 tau(   5) = (   1.6407309   0.9134410   9.3139491  )
         6           O1  tau(   6) = (   1.6648823   2.2608486  10.4895904  )
         7           Ti1 tau(   7) = (   1.7578240   2.2899216  13.0472362  )
         8           O1  tau(   8) = (   0.4801583   0.7600008  12.7739736  )
         9           Ti1 tau(   9) = (   1.6476770   3.7188931   2.6545865  )
        10           O1  tau(  10) = (   1.6476770   5.2064503   3.9361215  )
        11           Ti1 tau(  11) = (   1.6476770   5.2064503   5.9499405  )
        12           O1  tau(  12) = (   0.3661420   3.7188931   5.9499405  )
        13           Ti1 tau(  13) = (   1.6336050   3.7786827   9.1566831  )
        14           O1  tau(  14) = (   1.6678212   5.2513959  10.5409436  )
        15           Ti1 tau(  15) = (   1.7144009   5.2558216  12.3462911  )
        16           O1  tau(  16) = (   0.4635505   3.7986228  12.7318280  )
        17           O1  tau(  17) = (   1.6476770   2.2313359   1.3730516  )
        18           Ti1 tau(  18) = (   4.9430310   2.2313359   2.6545865  )
        19           O1  tau(  19) = (   4.9430310   2.2313359   4.6684056  )
        20           O1  tau(  20) = (   6.2245660   0.7437786   2.6545865  )
        21           O1  tau(  21) = (   3.6614961   0.7437786   2.6545865  )
        22           Ti1 tau(  22) = (   4.9430310   0.7437786   5.9499405  )
        23           O1  tau(  23) = (   1.6683653   2.2752577   7.9427336  )
        24           O1  tau(  24) = (   4.9430310   2.2313359   7.2314755  )
        25           O1  tau(  25) = (   2.9292120   0.7437786   5.9499405  )
        26           Ti1 tau(  26) = (   4.9404121   2.2664794   9.4552217  )
        27           O1  tau(  27) = (   5.0099888   2.2616732  11.2946145  )
        28           O1  tau(  28) = (   6.2612001   0.7714827   9.2659748  )
        29           O1  tau(  29) = (   3.6791272   0.7744986   9.2965846  )
        30           Ti1 tau(  30) = (   5.0117873   0.7976728  12.8161605  )
        31           O1  tau(  31) = (   4.9963122   2.2836652  13.8750618  )
        32           O1  tau(  32) = (   2.9819382   0.7448324  12.7109220  )
        33           O1  tau(  33) = (   1.6476770   5.2064503   1.3730516  )
        34           Ti1 tau(  34) = (   4.9430310   5.2064503   2.6545865  )
        35           O1  tau(  35) = (   4.9430310   5.2064503   4.6684056  )
        36           O1  tau(  36) = (   6.2245660   3.7188931   2.6545865  )
        37           O1  tau(  37) = (   3.6614961   3.7188931   2.6545865  )
        38           Ti1 tau(  38) = (   4.9430310   3.7188931   5.9499405  )
        39           O1  tau(  39) = (   1.6664207   5.2035600   7.9365221  )
        40           O1  tau(  40) = (   4.9430310   5.2064503   7.2314755  )
        41           O1  tau(  41) = (   2.9292120   3.7188931   5.9499405  )
        42           Ti1 tau(  42) = (   4.9524353   5.2460635   9.4426343  )
        43           O1  tau(  43) = (   5.0107556   5.2394944  11.2927493  )
        44           O1  tau(  44) = (   6.2663940   3.7551737   9.2646230  )
        45           O1  tau(  45) = (   3.6780957   3.7542261   9.2971476  )
        46           Ti1 tau(  46) = (   5.0587989   3.7766986  12.8010349  )
        47           O1  tau(  47) = (   5.0196089   5.2502198  13.8813978  )
        48           O1  tau(  48) = (   2.9624133   3.7943242  12.7299881  )
        49           O1  tau(  49) = (   1.7427453   2.2533568  14.8370015  )
        50           C1  tau(  50) = (   2.7196098   4.2826273  16.2318421  )
        51           H1  tau(  51) = (   3.3037454   4.9255546  15.5827400  )
        52           H1  tau(  52) = (   3.3286606   3.7570117  16.9822022  )
        53           H1  tau(  53) = (   2.3125587   3.4026405  15.5729816  )
        54           H1  tau(  54) = (   1.8391288   4.7650601  16.6448379  )

     number of k points=    40  Fermi-Dirac smearing, width (Ry)=  0.0073
                       cart. coord. in units 2pi/alat
        k(    1) = (   0.0000000   0.0000000   0.0000000), wk =   0.0277778
        k(    2) = (   0.0000000   0.0280101   0.0000000), wk =   0.0555556
        k(    3) = (   0.0000000   0.0560203   0.0000000), wk =   0.0555556
        k(    4) = (   0.0000000  -0.0840304   0.0000000), wk =   0.0277778
        k(    5) = (   0.0252881   0.0000000   0.0000000), wk =   0.0555556
        k(    6) = (   0.0252881   0.0280101   0.0000000), wk =   0.0555556
        k(    7) = (   0.0252881   0.0560203   0.0000000), wk =   0.0555556
        k(    8) = (   0.0252881  -0.0840304   0.0000000), wk =   0.0555556
        k(    9) = (   0.0505763   0.0000000   0.0000000), wk =   0.0555556
        k(   10) = (   0.0505763   0.0280101   0.0000000), wk =   0.0555556
        k(   11) = (   0.0505763   0.0560203   0.0000000), wk =   0.0555556
        k(   12) = (   0.0505763  -0.0840304   0.0000000), wk =   0.0555556
        k(   13) = (  -0.0758644   0.0000000   0.0000000), wk =   0.0277778
        k(   14) = (  -0.0758644   0.0280101   0.0000000), wk =   0.0555556
        k(   15) = (  -0.0758644   0.0560203   0.0000000), wk =   0.0555556
        k(   16) = (  -0.0758644  -0.0840304   0.0000000), wk =   0.0277778
        k(   17) = (  -0.0252881   0.0280101   0.0000000), wk =   0.0555556
        k(   18) = (  -0.0252881   0.0560203   0.0000000), wk =   0.0555556
        k(   19) = (  -0.0505763   0.0280101   0.0000000), wk =   0.0555556
        k(   20) = (  -0.0505763   0.0560203   0.0000000), wk =   0.0555556
        k(   21) = (   0.0000000   0.0000000   0.0000000), wk =   0.0277778
        k(   22) = (   0.0000000   0.0280101   0.0000000), wk =   0.0555556
        k(   23) = (   0.0000000   0.0560203   0.0000000), wk =   0.0555556
        k(   24) = (   0.0000000  -0.0840304   0.0000000), wk =   0.0277778
        k(   25) = (   0.0252881   0.0000000   0.0000000), wk =   0.0555556
        k(   26) = (   0.0252881   0.0280101   0.0000000), wk =   0.0555556
[...]
     atom:   44    charge:    2.0851    magn:    0.0008    constr:    0.0000
     atom:   45    charge:    2.0858    magn:    0.0004    constr:    0.0000
     atom:   46    charge:    3.1148    magn:   -0.0007    constr:    0.0000
     atom:   47    charge:    2.0806    magn:    0.0046    constr:    0.0000
     atom:   48    charge:    2.0838    magn:    0.0136    constr:    0.0000
     atom:   49    charge:    2.0521    magn:    0.2395    constr:    0.0000
     atom:   50    charge:    0.6704    magn:    0.0548    constr:    0.0000
     atom:   51    charge:    0.4220    magn:    0.0009    constr:    0.0000
     atom:   52    charge:    0.4138    magn:    0.0005    constr:    0.0000
     atom:   53    charge:    0.3675    magn:    0.0234    constr:    0.0000
     atom:   54    charge:    0.4231    magn:    0.0006    constr:    0.0000

     total energy              =   -3021.14985526 Ry
     Harris-Foulkes estimate   =   -3021.15005744 Ry
     estimated scf accuracy    <       0.00199529 Ry

     total magnetization       =     1.06 Bohr mag/cell
     absolute magnetization    =     1.23 Bohr mag/cell

[...]

     total energy              =   -3021.14964832 Ry
     Harris-Foulkes estimate   =   -3021.14964838 Ry
     estimated scf accuracy    <       0.00000121 Ry

[...]

     iteration # 10     ecut=    40.42 Ry     beta=0.10
     Davidson diagonalization with overlap
     ethr =  3.04E-10,  avg # of iterations =  3.0

     negative rho (up, down):  1.188E-02 1.195E-02

     Magnetic moment per site:
     atom:    1    charge:    3.1244    magn:   -0.0001    constr:    0.0000
     atom:    2    charge:    2.0897    magn:    0.0001    constr:    0.0000
     atom:    3    charge:    3.1198    magn:   -0.0000    constr:    0.0000
     atom:    4    charge:    2.0867    magn:   -0.0001    constr:    0.0000
     atom:    5    charge:    3.1161    magn:   -0.0003    constr:    0.0000
     atom:    6    charge:    2.0795    magn:    0.0022    constr:    0.0000
     atom:    7    charge:    3.1166    magn:   -0.0052    constr:    0.0000
     atom:    8    charge:    2.0793    magn:    0.0247    constr:    0.0000
     atom:    9    charge:    3.1244    magn:   -0.0001    constr:    0.0000
     atom:   10    charge:    2.0898    magn:    0.0001    constr:    0.0000
     atom:   11    charge:    3.1198    magn:   -0.0000    constr:    0.0000
     atom:   12    charge:    2.0870    magn:   -0.0000    constr:    0.0000
     atom:   13    charge:    3.1150    magn:   -0.0002    constr:    0.0000
     atom:   14    charge:    2.0939    magn:    0.0022    constr:    0.0000
     atom:   15    charge:    3.1184    magn:   -0.0008    constr:    0.0000
     atom:   16    charge:    2.0828    magn:    0.0047    constr:    0.0000
     atom:   17    charge:    2.0624    magn:    0.0008    constr:    0.0000
     atom:   18    charge:    3.1239    magn:   -0.0000    constr:    0.0000
     atom:   19    charge:    2.0875    magn:    0.0000    constr:    0.0000
     atom:   20    charge:    2.0847    magn:    0.0001    constr:    0.0000
     atom:   21    charge:    2.0847    magn:    0.0001    constr:    0.0000
     atom:   22    charge:    3.1199    magn:    0.0000    constr:    0.0000
     atom:   23    charge:    2.0908    magn:    0.0003    constr:    0.0000
     atom:   24    charge:    2.0754    magn:   -0.0000    constr:    0.0000
     atom:   25    charge:    2.0867    magn:    0.0000    constr:    0.0000
     atom:   26    charge:    3.1127    magn:   -0.0003    constr:    0.0000
     atom:   27    charge:    2.0803    magn:    0.0027    constr:    0.0000
     atom:   28    charge:    2.0839    magn:    0.0008    constr:    0.0000
     atom:   29    charge:    2.0860    magn:    0.0009    constr:    0.0000
     atom:   30    charge:    3.1171    magn:   -0.0008    constr:    0.0000
     atom:   31    charge:    2.0826    magn:    0.0006    constr:    0.0000
     atom:   32    charge:    2.0829    magn:    0.0065    constr:    0.0000
     atom:   33    charge:    2.0624    magn:    0.0008    constr:    0.0000
     atom:   34    charge:    3.1239    magn:   -0.0000    constr:    0.0000
     atom:   35    charge:    2.0876    magn:    0.0000    constr:    0.0000
     atom:   36    charge:    2.0847    magn:    0.0001    constr:    0.0000
     atom:   37    charge:    2.0847    magn:    0.0001    constr:    0.0000
     atom:   38    charge:    3.1200    magn:    0.0000    constr:    0.0000
     atom:   39    charge:    2.0839    magn:    0.0002    constr:    0.0000
     atom:   40    charge:    2.0756    magn:   -0.0001    constr:    0.0000
     atom:   41    charge:    2.0870    magn:   -0.0000    constr:    0.0000
     atom:   42    charge:    3.1151    magn:   -0.0003    constr:    0.0000
     atom:   43    charge:    2.0803    magn:    0.0032    constr:    0.0000
     atom:   44    charge:    2.0851    magn:    0.0010    constr:    0.0000
     atom:   45    charge:    2.0858    magn:    0.0006    constr:    0.0000
     atom:   46    charge:    3.1148    magn:   -0.0007    constr:    0.0000
     atom:   47    charge:    2.0807    magn:    0.0046    constr:    0.0000
     atom:   48    charge:    2.0837    magn:    0.0134    constr:    0.0000
     atom:   49    charge:    2.0517    magn:    0.2390    constr:    0.0000
     atom:   50    charge:    0.6693    magn:    0.0551    constr:    0.0000
     atom:   51    charge:    0.4218    magn:    0.0008    constr:    0.0000
     atom:   52    charge:    0.4137    magn:    0.0009    constr:    0.0000
     atom:   53    charge:    0.3674    magn:    0.0235    constr:    0.0000
     atom:   54    charge:    0.4230    magn:    0.0005    constr:    0.0000

     End of self-consistent calculation

 ------ SPIN UP ------------

          k = 0.0000 0.0000 0.0000 ( 34665 PWs)   bands (ev):

   -58.3023 -58.2672 -57.3842 -57.3785 -57.3455 -57.3077 -57.2564 -57.0871
   -57.0608 -57.0555 -57.0171 -56.9183 -56.8926 -56.8830 -56.7989 -56.7605
   -34.7475 -34.5709 -34.5421 -34.5088 -34.4138 -34.3570 -33.8792 -33.8668
   -33.7487 -33.6757 -33.6338 -33.5908 -33.5588 -33.5517 -33.5457 -33.5393
   -33.5275 -33.5127 -33.4874 -33.4858 -33.4714 -33.4693 -33.4670 -33.4479
   -33.3377 -33.3338 -33.3282 -33.3255 -33.3123 -33.2845 -33.2793 -33.2590
   -33.2387 -33.2334 -33.2333 -33.2239 -33.1939 -33.1733 -33.1375 -33.1369
   -33.0983 -33.0769 -33.0469 -33.0265 -33.0133 -32.9878 -32.9452 -32.8802
   -18.4676 -18.0346 -17.8103 -17.7100 -17.5493 -17.5280 -17.4837 -17.3823
   -17.3555 -17.2555 -17.0433 -17.0226 -17.0147 -16.9818 -16.9211 -16.8526
   -16.8338 -16.7962 -16.7382 -16.7057 -16.6872 -16.6546 -16.5913 -16.5868
   -16.4641 -16.4163 -16.3976 -16.3593 -16.3236 -16.1454 -16.0848 -15.5976
   -15.5367 -11.1828  -6.0461  -5.4948  -5.2807  -5.2008  -5.0919  -4.9892
    -4.9799  -4.9093  -4.8768  -4.7305  -4.6481  -4.5978  -4.5837  -4.5084
    -4.4272  -4.4118  -4.3505  -4.3144  -4.2320  -4.2170  -4.1955  -4.1404
    -4.0291  -4.0220  -3.9779  -3.9063  -3.8902  -3.8841  -3.8815  -3.8246
    -3.7747  -3.7501  -3.7030  -3.6611  -3.6296  -3.5792  -3.5398  -3.5260
    -3.5165  -3.4176  -3.4060  -3.3582  -3.2708  -3.2307  -3.1855  -3.0850
    -2.9196  -2.8947  -2.8487  -2.8011  -2.7438  -2.6918  -2.6703  -2.6600
    -2.6314  -2.5347  -2.4828  -2.4367  -2.3757  -2.3303  -2.2456  -2.2272
    -2.2228  -2.1579  -2.0677  -2.0391  -1.9957  -1.9572  -1.9277  -1.8965
    -1.8510  -1.7352  -1.6913  -1.6658  -1.6383  -1.6282  -1.5837  -1.5010
    -1.4184  -1.3647  -1.3504  -1.3353  -1.3116  -1.2671  -1.2213  -1.1683
    -1.1576  -1.1083  -1.1056  -1.0887  -1.0606  -0.9775  -0.8710  -0.8288
    -0.8062  -0.6909  -0.6847  -0.6218  -0.5499  -0.5086  -0.4809  -0.1842
     1.0286   1.1254   1.4202   1.6986   1.8067   1.9248   1.9721   2.0188
     2.0489   2.1363   2.2130   2.2336   2.2799   2.3986   2.4738   2.4877
     2.4949   2.5219   2.6245   2.6698   2.6744   2.6905   2.7136   2.8303
     2.8451   2.8897   2.9041   2.9560   2.9717   3.0247   3.0337   3.0547
     3.1087   3.1635   3.2021   3.2033   3.2508   3.2588   3.4147   3.4481
     3.4811   3.5237   3.6009   3.6294   3.6738   3.7177   3.8318   3.9590
     4.1067   4.1377   4.3294   4.4755   4.5970   4.7098   4.7876   4.8378
     5.0883   5.1360   5.2113   5.3562   5.4001   5.4066   5.4251   5.4362
     5.4454   5.5259   5.5575   5.6649   5.7216   5.7365   5.9094   5.9182
     5.9585   6.0780   6.0974   6.1395   6.2194   6.2993   6.4251   6.4929
     6.5457   6.5628   6.7850   6.8163   7.2126   7.9171   8.1527   8.1793
     8.3307   8.3917   8.6271   8.7108   8.7551   8.9574   9.1458   9.2381
     9.2815   9.4438   9.6192

[...]

          k =-0.0759 0.0000 0.0000 ( 34758 PWs)   bands (ev):

[...]

 ------ SPIN DOWN ----------

[...]

          k = 0.0506-0.0840 0.0000 ( 34628 PWs)   bands (ev):

[...]

          k =-0.0506 0.0560 0.0000 ( 34596 PWs)   bands (ev):

   -58.2937 -58.2762 -57.3785 -57.3722 -57.3542 -57.3111 -57.2560 -57.0904
   -57.0623 -57.0509 -57.0253 -56.9172 -56.9103 -56.8926 -56.7933 -56.7734
   -34.6532 -34.5638 -34.5494 -34.4837 -34.4576 -34.4374 -33.7845 -33.7787
   -33.6783 -33.6307 -33.6106 -33.5864 -33.5848 -33.5819 -33.5651 -33.5640
   -33.5409 -33.5279 -33.5264 -33.4925 -33.4888 -33.4619 -33.4399 -33.4118
   -33.3680 -33.3206 -33.3060 -33.3037 -33.2827 -33.2729 -33.2553 -33.2541
   -33.2529 -33.2435 -33.2399 -33.2371 -33.2188 -33.2104 -33.1763 -33.1534
   -33.1154 -33.0739 -33.0705 -33.0472 -33.0375 -33.0204 -33.0079 -32.9820
   -18.1044 -17.8155 -17.6978 -17.6100 -17.5938 -17.5539 -17.3768 -17.3655
   -17.2152 -17.2029 -17.1138 -17.0915 -16.9740 -16.9085 -16.8639 -16.8391
   -16.8201 -16.8040 -16.7583 -16.7323 -16.7173 -16.6239 -16.5932 -16.5030
   -16.4926 -16.4343 -16.4174 -16.4075 -16.2139 -16.1951 -15.8766 -15.6345
   -15.6125 -10.7807  -5.2983  -4.9883  -4.9376  -4.9296  -4.7797  -4.7721
    -4.7130  -4.6361  -4.5229  -4.5028  -4.4971  -4.4143  -4.3999  -4.3773
    -4.3576  -4.3239  -4.3059  -4.2442  -4.1967  -4.1725  -4.1626  -4.1096
    -4.0995  -4.0533  -4.0410  -3.9885  -3.9748  -3.9000  -3.8807  -3.8270
    -3.7784  -3.7122  -3.6791  -3.6123  -3.5958  -3.5548  -3.4936  -3.4285
    -3.3916  -3.3164  -3.2572  -3.2274  -3.1312  -3.1282  -3.0768  -3.0480
    -2.9923  -2.9742  -2.9544  -2.8989  -2.7964  -2.7600  -2.7454  -2.7026
    -2.6261  -2.5841  -2.5418  -2.5001  -2.4747  -2.4108  -2.3856  -2.3660
    -2.3474  -2.2863  -2.1914  -2.1686  -2.1436  -2.1250  -2.0990  -2.0444
    -2.0096  -1.9679  -1.9407  -1.8671  -1.8449  -1.7781  -1.7272  -1.6532
    -1.5625  -1.5453  -1.5353  -1.4931  -1.4406  -1.3816  -1.3493  -1.3023
    -1.2405  -1.1722  -1.0734  -1.0183  -0.9848  -0.8996  -0.8489  -0.8415
    -0.7895  -0.7027  -0.6887  -0.6672  -0.6520  -0.5492  -0.4715   0.3132
     1.3120   1.5017   1.6504   1.6722   1.8568   2.0079   2.0364   2.0717
     2.2475   2.2602   2.3642   2.3807   2.4371   2.4657   2.5523   2.5893
     2.6545   2.6996   2.7338   2.7485   2.8157   2.8469   2.8752   2.9076
     2.9384   2.9553   3.0109   3.0459   3.0765   3.1177   3.1492   3.1949
     3.1999   3.2543   3.2888   3.3288   3.3380   3.3811   3.4202   3.4713
     3.4855   3.5532   3.5827   3.6452   3.6718   3.7482   3.8083   3.8441
     3.8870   3.9637   4.1568   4.5073   4.6008   4.6203   4.7586   4.8262
     4.8927   4.9691   5.0142   5.1908   5.3060   5.3801   5.4158   5.4481
     5.5983   5.6201   5.6722   5.7209   5.8835   5.9009   5.9915   6.0102
     6.0719   6.1126   6.1732   6.2086   6.3126   6.3402   6.4135   6.4273
     6.5438   6.6174   6.7612   6.8114   7.1716   7.3468   7.4988   7.6165
     7.9355   8.0083   8.1020   8.3695   8.6041   8.7182   8.8019   9.0381
     9.1893   9.3308   9.4340

     the Fermi energy is    -0.2870 ev

!    total energy              =   -3021.14964826 Ry
     Harris-Foulkes estimate   =   -3021.14964849 Ry
     estimated scf accuracy    <       0.00000044 Ry

     The total energy is the sum of the following terms:

     one-electron contribution =  -40438.50012974 Ry
     hartree contribution      =   20290.66813134 Ry
     xc contribution           =    -553.19873528 Ry
     ewald contribution        =   17679.90088193 Ry
     smearing contrib. (-TS)   =      -0.01979651 Ry

     total magnetization       =     1.06 Bohr mag/cell
     absolute magnetization    =     1.23 Bohr mag/cell

     convergence has been achieved in  10 iterations

     Forces acting on atoms (Ry/au):

     negative rho (up, down):  1.188E-02 1.195E-02
     atom    1 type  1   force =     0.00018540   -0.00089939   -0.10468954
     atom    2 type  2   force =     0.00014411    0.00068124    0.04002541
     atom    3 type  1   force =     0.00074991   -0.00175099   -0.02054276
     atom    4 type  2   force =    -0.00326775    0.00312488   -0.00324055
     atom    5 type  1   force =     0.00034693    0.00006684    0.00034146
     atom    6 type  2   force =    -0.00012977   -0.00009484    0.00023136
     atom    7 type  1   force =    -0.00034269   -0.00006612   -0.00011640
     atom    8 type  2   force =    -0.00019866   -0.00023974   -0.00025067
     atom    9 type  1   force =    -0.00003360    0.00056744   -0.10482357
     atom   10 type  2   force =     0.00034873   -0.00021104    0.03599800
     atom   11 type  1   force =     0.00068040    0.00183846    0.00261814
     atom   12 type  2   force =    -0.00519628   -0.00266747   -0.00520497
     atom   13 type  1   force =     0.00041546    0.00009112   -0.00023189
     atom   14 type  2   force =     0.00013051   -0.00007678   -0.00008193
     atom   15 type  1   force =    -0.00010583   -0.00006704   -0.00009043
     atom   16 type  2   force =    -0.00023150    0.00001972   -0.00033955
     atom   17 type  2   force =     0.00001050   -0.00001344    0.06657399
     atom   18 type  1   force =     0.00005882    0.00003109    0.13147592
     atom   19 type  2   force =     0.00017781   -0.00052748   -0.08521888
     atom   20 type  2   force =    -0.05792757    0.00014252   -0.03608227
     atom   21 type  2   force =     0.05781887   -0.00004727   -0.03604257
     atom   22 type  1   force =    -0.00043134    0.00074944    0.08017254
     atom   23 type  2   force =     0.00019908   -0.00004967    0.00002693
     atom   24 type  2   force =     0.00064243    0.00185867   -0.03466859
     atom   25 type  2   force =     0.00414211    0.00332703   -0.00511144
     atom   26 type  1   force =     0.00040896   -0.00004800    0.00006052
     atom   27 type  2   force =    -0.00009883   -0.00012982    0.00009854
     atom   28 type  2   force =     0.00004886   -0.00019487   -0.00002488
     atom   29 type  2   force =     0.00000456   -0.00007437    0.00007300
     atom   30 type  1   force =    -0.00014682   -0.00014476   -0.00003296
     atom   31 type  2   force =     0.00009910   -0.00007940    0.00005100
     atom   32 type  2   force =    -0.00008062   -0.00004020    0.00013027
     atom   33 type  2   force =    -0.00016676    0.00004978    0.06630691
     atom   34 type  1   force =     0.00007792   -0.00003382    0.13125961
     atom   35 type  2   force =     0.00018841   -0.00012947   -0.08483121
     atom   36 type  2   force =    -0.05782290    0.00006560   -0.03569451
     atom   37 type  2   force =     0.05799377   -0.00017386   -0.03609200
     atom   38 type  1   force =    -0.00037538   -0.00020394    0.07984311
     atom   39 type  2   force =     0.00007867   -0.00026171   -0.00009242
     atom   40 type  2   force =     0.00048978    0.00124200   -0.03527718
     atom   41 type  2   force =     0.00588979   -0.00243420   -0.00723367
     atom   42 type  1   force =     0.00024355   -0.00006802    0.00001093
     atom   43 type  2   force =    -0.00019522   -0.00010034    0.00008664
     atom   44 type  2   force =     0.00000130   -0.00015977   -0.00002984
     atom   45 type  2   force =     0.00000755   -0.00017003    0.00005458
     atom   46 type  1   force =    -0.00020668   -0.00009484   -0.00008747
     atom   47 type  2   force =    -0.00011268   -0.00015132    0.00020450
     atom   48 type  2   force =    -0.00006793    0.00010201    0.00029239
     atom   49 type  2   force =    -0.00028092   -0.00003808   -0.00015198
     atom   50 type  3   force =     0.00678347   -0.01051486    0.00990615
     atom   51 type  4   force =     0.00037533   -0.00110283    0.00105071
     atom   52 type  4   force =    -0.00914202    0.01087205   -0.01051289
     atom   53 type  4   force =    -0.00207325   -0.00113407   -0.00121717
     atom   54 type  4   force =    -0.00010709   -0.00063606    0.00112161

     Total force =     0.343140     Total SCF correction =     0.001218
 !ASE

     Writing output data file calc.save

     General routines

     Parallel routines

   This run was terminated on:  14:56: 5  26Feb2018

   JOB DONE.