     Program PWSCF v.5.1rc2 (svn rev. ) starts on 10Mar2018 at 11:19:29

     Current dimensions of program PWSCF are:
     Max number of different atomic species (ntypx) = 10
     Max number of k-points (npk) =  40000
     Max angular momentum in pseudopotentials (lmaxx) =  3

     IMPORTANT: XC functional enforced from input :
     Exchange-correlation      = BEEF ( 1  4 27 13 2)
     Any further DFT definition will be discarded
     Please, verify this is what you really want

     Subspace diagonalization in iterative solution of the eigenvalue problem:
     a serial algorithm will be used

     Generating pointlists ...
     new r_m :   0.4125 (alat units)  0.7795 (a.u.) for type    1
     new r_m :   0.4125 (alat units)  0.7795 (a.u.) for type    2
     new r_m :   0.4125 (alat units)  0.7795 (a.u.) for type    3

     bravais-lattice index     =            0
     lattice parameter (alat)  =       1.8897  a.u.
     unit-cell volume          =    7990.9933 (a.u.)^3
     number of atoms/cell      =           51
     number of atomic types    =            3
     number of electrons       =       400.00
     number of Kohn-Sham states=          300
     kinetic-energy cutoff     =      40.4243  Ry
     charge density cutoff     =     404.2426  Ry
     convergence threshold     =      7.3E-07
     mixing beta               =       0.1000
     number of iterations used =           10  plain     mixing
     Exchange-correlation      = BEEF ( 1  4 27 13 2)
     nstep                     =           50

     celldm(1)=   1.889726  celldm(2)=   0.000000  celldm(3)=   0.000000
     celldm(4)=   0.000000  celldm(5)=   0.000000  celldm(6)=   0.000000

     crystal axes: (cart. coord. in units of alat)
               a(1) = (   6.590708   0.000000   0.000000 )
               a(2) = (   0.000000   5.950229   0.000000 )
               a(3) = (   0.000000   0.000000  30.195235 )

     reciprocal axes: (cart. coord. in units 2 pi/alat)
               b(1) = (  0.151729  0.000000  0.000000 )
               b(2) = (  0.000000  0.168061  0.000000 )
               b(3) = (  0.000000  0.000000  0.033118 )

     PseudoPot. # 1 for Ti read from file:
     /home/alatimer/bin/psp/esp_psp_w_gbrvRu/Ti.UPF
     MD5 check sum: 8e4df49b7f0d34bbd5052bf3f5ea0213
     Pseudo is Ultrasoft, Zval = 12.0
     Generated by new atomic code, or converted to UPF format
     Using radial grid of  851 points,  6 beta functions with:
                l(1) =   0
                l(2) =   0
                l(3) =   1
                l(4) =   1
                l(5) =   2
                l(6) =   2
     Q(r) pseudized with  8 coefficients,  rinner =    1.000   1.000   1.000
                                                       1.000   1.000

     PseudoPot. # 2 for  O read from file:
     /home/alatimer/bin/psp/esp_psp_w_gbrvRu/O.UPF
     MD5 check sum: e057bbcf3229fb5d8c36c0c92f9568b4
     Pseudo is Ultrasoft + core correction, Zval =  6.0
     Generated using "atomic" code by A. Dal Corso  v.5.0.2 svn rev. 9415
     Using radial grid of 1095 points,  4 beta functions with:
                l(1) =   0
                l(2) =   0
                l(3) =   1
                l(4) =   1
     Q(r) pseudized with 0 coefficients

     PseudoPot. # 3 for  N read from file:
     /home/alatimer/bin/psp/esp_psp_w_gbrvRu/N.UPF
     MD5 check sum: ed8b6a90f28a53b7d71920e7015d2dd6
     Pseudo is Ultrasoft + core correction, Zval =  5.0
     Generated using "atomic" code by A. Dal Corso  v.5.0.2 svn rev. 9415
     Using radial grid of 1085 points,  4 beta functions with:
                l(1) =   0
                l(2) =   0
                l(3) =   1
                l(4) =   1
     Q(r) pseudized with 0 coefficients

     vdW kernel table read from file vdW_kernel_table
     MD5 check sum: 095c7af220d748ca6e76c0b4c6cfb241

     atomic species   valence    mass     pseudopotential
        Ti1           12.00    47.88000     Ti( 1.00)
        O1             6.00    15.99940      O( 1.00)
        N1             5.00    14.00670      N( 1.00)

     Starting magnetic structure
     atomic species   magnetization
        Ti1          0.250
        O1           0.500
        N1           0.600

     No symmetry found

   Cartesian axes

     site n.     atom                  positions (alat units)
         1           Ti1 tau(   1) = (   1.6476770   0.7437786   2.6545865  )
         2           O1  tau(   2) = (   1.6476770   2.2313359   3.9361215  )
         3           Ti1 tau(   3) = (   1.6476770   2.2313359   5.9499405  )
         4           O1  tau(   4) = (   0.3661420   0.7437786   5.9499405  )
         5           Ti1 tau(   5) = (   1.5280591   0.7315068   9.1973351  )
         6           O1  tau(   6) = (   1.6613943   2.1836906  10.6091769  )
         7           Ti1 tau(   7) = (   1.6665780   2.2096385  12.4157880  )
         8           O1  tau(   8) = (   0.4439715   0.7264440  12.7601561  )
         9           Ti1 tau(   9) = (   1.6476770   3.7188931   2.6545865  )
        10           O1  tau(  10) = (   1.6476770   5.2064503   3.9361215  )
        11           Ti1 tau(  11) = (   1.6476770   5.2064503   5.9499405  )
        12           O1  tau(  12) = (   0.3661420   3.7188931   5.9499405  )
        13           Ti1 tau(  13) = (   1.5319291   3.7072436   9.2118370  )
        14           O1  tau(  14) = (   1.6575607   5.2126413  10.6087893  )
        15           Ti1 tau(  15) = (   1.6606453   5.1916961  12.4165775  )
        16           O1  tau(  16) = (   0.4123725   3.7022030  12.5882193  )
        17           O1  tau(  17) = (   1.6476770   2.2313359   1.3730516  )
        18           Ti1 tau(  18) = (   4.9430310   2.2313359   2.6545865  )
        19           O1  tau(  19) = (   4.9430310   2.2313359   4.6684056  )
        20           O1  tau(  20) = (   6.2245660   0.7437786   2.6545865  )
        21           O1  tau(  21) = (   3.6614961   0.7437786   2.6545865  )
        22           Ti1 tau(  22) = (   4.9430310   0.7437786   5.9499405  )
        23           O1  tau(  23) = (   1.6517842   2.2287041   8.0298356  )
        24           O1  tau(  24) = (   4.9430310   2.2313359   7.2314755  )
        25           O1  tau(  25) = (   2.9292120   0.7437786   5.9499405  )
        26           Ti1 tau(  26) = (   4.8605205   2.2076595   9.4238065  )
        27           O1  tau(  27) = (   4.9553550   2.1639423  11.2756624  )
        28           O1  tau(  28) = (   6.2690671   0.7288246   9.2688367  )
        29           O1  tau(  29) = (   3.6660957   0.7249325   9.2867299  )
        30           Ti1 tau(  30) = (   4.9284588   0.7282168  12.7798302  )
        31           O1  tau(  31) = (   4.9953437   2.2216212  13.8477397  )
        32           O1  tau(  32) = (   2.9112183   0.7266397  12.7651274  )
        33           O1  tau(  33) = (   1.6476770   5.2064503   1.3730516  )
        34           Ti1 tau(  34) = (   4.9430310   5.2064503   2.6545865  )
        35           O1  tau(  35) = (   4.9430310   5.2064503   4.6684056  )
        36           O1  tau(  36) = (   6.2245660   3.7188931   2.6545865  )
        37           O1  tau(  37) = (   3.6614961   3.7188931   2.6545865  )
        38           Ti1 tau(  38) = (   4.9430310   3.7188931   5.9499405  )
        39           O1  tau(  39) = (   1.6524867   5.1852222   8.0294571  )
        40           O1  tau(  40) = (   4.9430310   5.2064503   7.2314755  )
        41           O1  tau(  41) = (   2.9292120   3.7188931   5.9499405  )
        42           Ti1 tau(  42) = (   4.8610151   5.1886528   9.4241876  )
        43           O1  tau(  43) = (   4.9550983   5.2107439  11.2753448  )
        44           O1  tau(  44) = (   6.2713562   3.7024388   9.3047907  )
        45           O1  tau(  45) = (   3.6650622   3.7005085   9.3135888  )
        46           Ti1 tau(  46) = (   5.0160509   3.7038162  12.7585864  )
        47           O1  tau(  47) = (   4.9984032   5.1727849  13.8485277  )
        48           O1  tau(  48) = (   2.9655234   3.7049164  12.5317472  )
        49           O1  tau(  49) = (   2.2548149   3.7063572  14.5693114  )
        50           N1  tau(  50) = (   2.4320298   3.6667063  16.9651815  )
        51           N1  tau(  51) = (   2.1425646   3.6919273  15.8611024  )

     number of k points=    40  Fermi-Dirac smearing, width (Ry)=  0.0073
                       cart. coord. in units 2pi/alat
        k(    1) = (   0.0000000   0.0000000   0.0000000), wk =   0.0277778
        k(    2) = (   0.0000000   0.0280101   0.0000000), wk =   0.0555556
        k(    3) = (   0.0000000   0.0560203   0.0000000), wk =   0.0555556
        k(    4) = (   0.0000000  -0.0840304   0.0000000), wk =   0.0277778
        k(    5) = (   0.0252881   0.0000000   0.0000000), wk =   0.0555556
        k(    6) = (   0.0252881   0.0280101   0.0000000), wk =   0.0555556
        k(    7) = (   0.0252881   0.0560203   0.0000000), wk =   0.0555556
        k(    8) = (   0.0252881  -0.0840304   0.0000000), wk =   0.0555556
        k(    9) = (   0.0505763   0.0000000   0.0000000), wk =   0.0555556
        k(   10) = (   0.0505763   0.0280101   0.0000000), wk =   0.0555556
        k(   11) = (   0.0505763   0.0560203   0.0000000), wk =   0.0555556
        k(   12) = (   0.0505763  -0.0840304   0.0000000), wk =   0.0555556
        k(   13) = (  -0.0758644   0.0000000   0.0000000), wk =   0.0277778
        k(   14) = (  -0.0758644   0.0280101   0.0000000), wk =   0.0555556
        k(   15) = (  -0.0758644   0.0560203   0.0000000), wk =   0.0555556
        k(   16) = (  -0.0758644  -0.0840304   0.0000000), wk =   0.0277778
        k(   17) = (  -0.0252881   0.0280101   0.0000000), wk =   0.0555556
        k(   18) = (  -0.0252881   0.0560203   0.0000000), wk =   0.0555556
        k(   19) = (  -0.0505763   0.0280101   0.0000000), wk =   0.0555556
        k(   20) = (  -0.0505763   0.0560203   0.0000000), wk =   0.0555556
        k(   21) = (   0.0000000   0.0000000   0.0000000), wk =   0.0277778
        k(   22) = (   0.0000000   0.0280101   0.0000000), wk =   0.0555556
        k(   23) = (   0.0000000   0.0560203   0.0000000), wk =   0.0555556
        k(   24) = (   0.0000000  -0.0840304   0.0000000), wk =   0.0277778
        k(   25) = (   0.0252881   0.0000000   0.0000000), wk =   0.0555556
        k(   26) = (   0.0252881   0.0280101   0.0000000), wk =   0.0555556
        k(   27) = (   0.0252881   0.0560203   0.0000000), wk =   0.0555556
        k(   28) = (   0.0252881  -0.0840304   0.0000000), wk =   0.0555556
        k(   29) = (   0.0505763   0.0000000   0.0000000), wk =   0.0555556
        k(   30) = (   0.0505763   0.0280101   0.0000000), wk =   0.0555556
        k(   31) = (   0.0505763   0.0560203   0.0000000), wk =   0.0555556
        k(   32) = (   0.0505763  -0.0840304   0.0000000), wk =   0.0555556
        k(   33) = (  -0.0758644   0.0000000   0.0000000), wk =   0.0277778
        k(   34) = (  -0.0758644   0.0280101   0.0000000), wk =   0.0555556
        k(   35) = (  -0.0758644   0.0560203   0.0000000), wk =   0.0555556
        k(   36) = (  -0.0758644  -0.0840304   0.0000000), wk =   0.0277778
[...]
     atom:   36    charge:    2.0847    magn:   -0.0001    constr:    0.0000
     atom:   37    charge:    2.0847    magn:   -0.0001    constr:    0.0000
     atom:   38    charge:    3.1197    magn:   -0.0000    constr:    0.0000
     atom:   39    charge:    2.0912    magn:    0.0001    constr:    0.0000
     atom:   40    charge:    2.0777    magn:    0.0001    constr:    0.0000
     atom:   41    charge:    2.0869    magn:    0.0000    constr:    0.0000
     atom:   42    charge:    3.1181    magn:   -0.0001    constr:    0.0000
     atom:   43    charge:    2.0838    magn:    0.0002    constr:    0.0000
     atom:   44    charge:    2.0865    magn:    0.0001    constr:    0.0000
     atom:   45    charge:    2.0871    magn:    0.0001    constr:    0.0000
     atom:   46    charge:    3.1171    magn:   -0.0001    constr:    0.0000
     atom:   47    charge:    2.0798    magn:    0.0003    constr:    0.0000
     atom:   48    charge:    2.0836    magn:    0.0002    constr:    0.0000
     atom:   49    charge:    2.0520    magn:   -0.0000    constr:    0.0000
     atom:   50    charge:    1.2572    magn:   -0.0000    constr:    0.0000
     atom:   51    charge:    1.2834    magn:    0.0000    constr:    0.0000

     total energy              =   -3044.96715870 Ry
     Harris-Foulkes estimate   =   -3044.97409678 Ry
     estimated scf accuracy    <       0.04878333 Ry

     total magnetization       =     0.00 Bohr mag/cell
     absolute magnetization    =     0.01 Bohr mag/cell

[...]

     total energy              =   -3044.95468058 Ry
     Harris-Foulkes estimate   =   -3044.95468064 Ry
     estimated scf accuracy    <       0.00000090 Ry

[...]

     iteration # 10     ecut=    40.42 Ry     beta=0.10
     Davidson diagonalization with overlap
     ethr =  2.24E-10,  avg # of iterations =  2.0

     negative rho (up, down):  1.157E-02 1.157E-02

     Magnetic moment per site:
     atom:    1    charge:    3.1250    magn:   -0.0000    constr:    0.0000
     atom:    2    charge:    2.0894    magn:    0.0000    constr:    0.0000
     atom:    3    charge:    3.1196    magn:   -0.0000    constr:    0.0000
     atom:    4    charge:    2.0870    magn:    0.0000    constr:    0.0000
     atom:    5    charge:    3.1170    magn:   -0.0000    constr:    0.0000
     atom:    6    charge:    2.0917    magn:    0.0000    constr:    0.0000
     atom:    7    charge:    3.1185    magn:   -0.0000    constr:    0.0000
     atom:    8    charge:    2.0815    magn:    0.0000    constr:    0.0000
     atom:    9    charge:    3.1250    magn:   -0.0000    constr:    0.0000
     atom:   10    charge:    2.0894    magn:    0.0000    constr:    0.0000
     atom:   11    charge:    3.1196    magn:   -0.0000    constr:    0.0000
     atom:   12    charge:    2.0870    magn:    0.0000    constr:    0.0000
     atom:   13    charge:    3.1148    magn:   -0.0000    constr:    0.0000
     atom:   14    charge:    2.0911    magn:    0.0000    constr:    0.0000
     atom:   15    charge:    3.1194    magn:   -0.0000    constr:    0.0000
     atom:   16    charge:    2.0883    magn:    0.0000    constr:    0.0000
     atom:   17    charge:    2.0624    magn:    0.0000    constr:    0.0000
     atom:   18    charge:    3.1239    magn:   -0.0000    constr:    0.0000
     atom:   19    charge:    2.0878    magn:   -0.0000    constr:    0.0000
     atom:   20    charge:    2.0847    magn:   -0.0000    constr:    0.0000
     atom:   21    charge:    2.0847    magn:   -0.0000    constr:    0.0000
     atom:   22    charge:    3.1197    magn:   -0.0000    constr:    0.0000
     atom:   23    charge:    2.0908    magn:    0.0000    constr:    0.0000
     atom:   24    charge:    2.0777    magn:    0.0000    constr:    0.0000
     atom:   25    charge:    2.0869    magn:    0.0000    constr:    0.0000
     atom:   26    charge:    3.1165    magn:   -0.0000    constr:    0.0000
     atom:   27    charge:    2.0824    magn:    0.0000    constr:    0.0000
     atom:   28    charge:    2.0879    magn:    0.0000    constr:    0.0000
     atom:   29    charge:    2.0877    magn:    0.0000    constr:    0.0000
     atom:   30    charge:    3.1168    magn:   -0.0000    constr:    0.0000
     atom:   31    charge:    2.0815    magn:    0.0000    constr:    0.0000
     atom:   32    charge:    2.0842    magn:    0.0000    constr:    0.0000
     atom:   33    charge:    2.0624    magn:    0.0000    constr:    0.0000
     atom:   34    charge:    3.1239    magn:   -0.0000    constr:    0.0000
     atom:   35    charge:    2.0878    magn:   -0.0000    constr:    0.0000
     atom:   36    charge:    2.0847    magn:   -0.0000    constr:    0.0000
     atom:   37    charge:    2.0847    magn:   -0.0000    constr:    0.0000
     atom:   38    charge:    3.1197    magn:   -0.0000    constr:    0.0000
     atom:   39    charge:    2.0912    magn:    0.0000    constr:    0.0000
     atom:   40    charge:    2.0777    magn:    0.0000    constr:    0.0000
     atom:   41    charge:    2.0869    magn:    0.0000    constr:    0.0000
     atom:   42    charge:    3.1181    magn:   -0.0000    constr:    0.0000
     atom:   43    charge:    2.0838    magn:    0.0000    constr:    0.0000
     atom:   44    charge:    2.0865    magn:    0.0000    constr:    0.0000
     atom:   45    charge:    2.0871    magn:    0.0000    constr:    0.0000
     atom:   46    charge:    3.1171    magn:   -0.0000    constr:    0.0000
     atom:   47    charge:    2.0796    magn:    0.0000    constr:    0.0000
     atom:   48    charge:    2.0835    magn:    0.0000    constr:    0.0000
     atom:   49    charge:    2.0519    magn:    0.0000    constr:    0.0000
     atom:   50    charge:    1.2558    magn:   -0.0000    constr:    0.0000
     atom:   51    charge:    1.2823    magn:    0.0000    constr:    0.0000

     End of self-consistent calculation

 ------ SPIN UP ------------

          k = 0.0000 0.0000 0.0000 ( 34665 PWs)   bands (ev):

   -57.8296 -57.7947 -57.5209 -57.4654 -57.3983 -57.3621 -57.2855 -57.2501
   -57.1880 -57.1527 -57.1253 -57.0899 -56.8911 -56.8192 -56.2915 -56.2562
   -34.2660 -34.1108 -34.0822 -34.0679 -34.0312 -33.9368 -33.8761 -33.8740
   -33.8356 -33.7789 -33.7417 -33.7316 -33.7273 -33.6959 -33.6792 -33.6763
   -33.6571 -33.6476 -33.6277 -33.5640 -33.5349 -33.4693 -33.4668 -33.4461
   -33.4391 -33.4368 -33.3949 -33.3910 -33.3858 -33.3680 -33.3635 -33.3432
   -33.3211 -33.3152 -33.2869 -33.2820 -33.2566 -33.1524 -33.1476 -33.0913
   -33.0465 -32.9454 -32.7102 -32.6426 -32.6166 -32.5141 -32.4224 -32.3141
   -24.1772 -20.9145 -18.1844 -17.9822 -17.7601 -17.6376 -17.5042 -17.5023
   -17.2200 -17.1984 -17.1547 -17.0614 -17.0595 -17.0164 -17.0024 -16.9291
   -16.8816 -16.8693 -16.8488 -16.8073 -16.7435 -16.6975 -16.5809 -16.5562
   -16.5286 -16.5189 -16.4290 -16.3186 -16.2834 -16.2520 -16.1152 -16.0851
   -14.8737 -14.7889  -9.7983  -7.4198  -7.4146  -5.9888  -5.5759  -5.5183
    -5.3689  -5.3607  -5.3025  -5.0057  -4.9455  -4.5963  -4.5916  -4.5564
    -4.5479  -4.4996  -4.3742  -4.2786  -4.2305  -4.2128  -4.1773  -4.1750
    -4.1701  -4.1626  -4.0977  -4.0927  -4.0171  -3.9939  -3.9629  -3.9219
    -3.8875  -3.8165  -3.7809  -3.7567  -3.7278  -3.6507  -3.6297  -3.5533
    -3.5518  -3.5265  -3.4587  -3.3399  -3.2091  -3.1743  -3.0695  -3.0116
    -2.9576  -2.8848  -2.8222  -2.8080  -2.7499  -2.7490  -2.7320  -2.6060
    -2.5696  -2.5142  -2.4416  -2.4064  -2.3785  -2.3603  -2.3304  -2.2903
    -2.2823  -2.2557  -2.2182  -2.1847  -2.1792  -2.0570  -1.9994  -1.9015
    -1.7583  -1.7558  -1.7308  -1.6874  -1.6611  -1.6490  -1.5718  -1.5518
    -1.4500  -1.4409  -1.4178  -1.4080  -1.3915  -1.2920  -1.2408  -1.2303
    -1.2092  -1.1406  -1.0802  -1.0247  -0.9252  -0.7510  -0.7207  -0.7169
    -0.6547  -0.5273  -0.3780  -0.2416  -0.1801  -0.0149   0.1118   0.1269
     1.5123   1.5412   1.8255   1.8607   1.8745   1.8929   2.0609   2.0810
     2.1152   2.2313   2.3510   2.3648   2.4008   2.4193   2.4561   2.4650
     2.5172   2.5354   2.5565   2.6368   2.6596   2.6702   2.7509   2.7957
     2.8586   2.8866   2.9793   2.9879   2.9889   3.0096   3.0574   3.0740
     3.0863   3.0894   3.0977   3.1327   3.2285   3.2745   3.2914   3.2978
     3.3461   3.3767   3.4095   3.5235   3.5263   3.6629   3.8708   3.9766
     3.9807   4.0366   4.0581   4.1723   4.2463   4.4531   4.5312   4.6500
     4.8992   4.9394   5.0045   5.1270   5.1994   5.3834   5.3884   5.4147
     5.4880   5.5755   5.6205   5.6299   5.7072   5.7244   5.7303   5.7592
     5.9153   5.9588   6.0047   6.0111   6.0903   6.1351   6.2035   6.2127
     6.4672   6.6160   6.7630   6.7795   6.8745   7.1572   7.2797   7.3456
     7.9318   7.9899   8.1617   8.4229   8.6977   8.9093   8.9224   8.9527
     9.2181   9.2593   9.2812   9.3569

[...]

          k =-0.0759 0.0000 0.0000 ( 34758 PWs)   bands (ev):

[...]

 ------ SPIN DOWN ----------

[...]

          k = 0.0506-0.0840 0.0000 ( 34628 PWs)   bands (ev):

[...]

          k =-0.0506 0.0560 0.0000 ( 34596 PWs)   bands (ev):

   -57.8209 -57.8035 -57.5162 -57.4703 -57.3899 -57.3706 -57.2766 -57.2590
   -57.1793 -57.1615 -57.1166 -57.0988 -56.8873 -56.8232 -56.2828 -56.2652
   -34.1716 -34.1035 -34.0892 -34.0062 -33.9764 -33.9717 -33.9602 -33.8133
   -33.7841 -33.7736 -33.7598 -33.7216 -33.7138 -33.7011 -33.6863 -33.6826
   -33.5997 -33.5855 -33.5843 -33.5452 -33.5445 -33.5229 -33.4897 -33.4704
   -33.4592 -33.4457 -33.4145 -33.3888 -33.3879 -33.3753 -33.3675 -33.3637
   -33.3482 -33.3353 -33.3115 -33.3089 -33.2738 -33.1531 -33.1411 -33.0942
   -33.0644 -33.0412 -32.6381 -32.6226 -32.6136 -32.4916 -32.4457 -32.4158
   -24.1771 -20.9140 -17.8805 -17.6338 -17.4605 -17.4390 -17.4202 -17.3474
   -17.3072 -17.2761 -17.2039 -17.1702 -17.1004 -17.0801 -17.0150 -16.9924
   -16.9899 -16.9220 -16.9120 -16.8493 -16.8081 -16.7816 -16.7138 -16.6681
   -16.5672 -16.4644 -16.4201 -16.3219 -16.3202 -16.2921 -16.2549 -16.1892
   -14.8989 -14.8627  -9.7957  -7.4246  -7.4132  -5.9848  -5.2224  -4.7892
    -4.7389  -4.7300  -4.6925  -4.6556  -4.6454  -4.6082  -4.5037  -4.4851
    -4.4603  -4.4435  -4.3521  -4.3002  -4.2826  -4.2777  -4.2360  -4.2156
    -4.1909  -4.1788  -4.1647  -4.1377  -4.0846  -4.0474  -4.0366  -4.0070
    -3.9513  -3.8913  -3.8258  -3.7903  -3.6875  -3.6587  -3.5156  -3.4895
    -3.4719  -3.4042  -3.3857  -3.2073  -3.1185  -3.0828  -3.0330  -2.9916
    -2.9575  -2.9172  -2.8944  -2.8617  -2.8102  -2.7728  -2.7186  -2.7129
    -2.6383  -2.6247  -2.5963  -2.5201  -2.4902  -2.4726  -2.4536  -2.4315
    -2.4057  -2.3635  -2.2940  -2.2812  -2.2572  -2.2308  -2.1847  -2.1693
    -2.0987  -2.0594  -2.0289  -1.9876  -1.9419  -1.8607  -1.7927  -1.7770
    -1.7088  -1.6087  -1.5351  -1.4895  -1.4559  -1.3777  -1.3418  -1.2343
    -1.1805  -1.1422  -1.0989  -1.0373  -0.9933  -0.9298  -0.9169  -0.8408
    -0.8049  -0.7908  -0.6637  -0.4719  -0.0598  -0.0227  -0.0093   0.0467
     1.7338   1.9283   1.9509   2.0106   2.0675   2.1076   2.1161   2.1702
     2.2171   2.2651   2.3787   2.4163   2.4242   2.4505   2.4698   2.4937
     2.5697   2.5957   2.6198   2.6416   2.6628   2.7155   2.7860   2.8154
     2.8863   2.8995   2.9395   2.9698   3.0182   3.0572   3.1835   3.2102
     3.2256   3.2603   3.3035   3.3208   3.3632   3.3823   3.3962   3.4606
     3.5356   3.5679   3.6044   3.6824   3.7349   3.7655   3.7750   3.7912
     3.8334   3.9664   4.0184   4.1451   4.2056   4.4457   4.6411   4.6727
     4.7437   4.7464   4.8918   4.9960   5.0679   5.1363   5.2052   5.2301
     5.3021   5.4594   5.5669   5.6312   5.7116   5.7370   5.8268   5.9671
     6.0095   6.1105   6.1623   6.2062   6.2503   6.2993   6.4632   6.4830
     6.5475   6.5871   6.6572   6.6773   6.8390   6.8873   7.0008   7.3152
     7.3251   7.7496   7.7794   8.0222   8.1040   8.1800   8.5857   8.6796
     8.8464   8.9147   9.1475   9.3679

     the Fermi energy is     0.8601 ev

!    total energy              =   -3044.95468045 Ry
     Harris-Foulkes estimate   =   -3044.95468061 Ry
     estimated scf accuracy    <       0.00000029 Ry

     The total energy is the sum of the following terms:

     one-electron contribution =  -40855.12098205 Ry
     hartree contribution      =   20499.79827336 Ry
     xc contribution           =    -557.14820059 Ry
     ewald contribution        =   17867.51643478 Ry
     smearing contrib. (-TS)   =      -0.00020595 Ry

     total magnetization       =     0.00 Bohr mag/cell
     absolute magnetization    =     0.00 Bohr mag/cell

     convergence has been achieved in  10 iterations

     Forces acting on atoms (Ry/au):

     negative rho (up, down):  1.157E-02 1.157E-02
     atom    1 type  1   force =    -0.00008207    0.00030673   -0.13603432
     atom    2 type  2   force =     0.00010589   -0.00007909    0.07521099
     atom    3 type  1   force =     0.00127158    0.00109104   -0.05992192
     atom    4 type  2   force =     0.00661246   -0.00006564    0.00969875
     atom    5 type  1   force =    -0.00131230   -0.00014247   -0.00009671
     atom    6 type  2   force =    -0.00180106   -0.00349284   -0.00888483
     atom    7 type  1   force =     0.01072264    0.00772667   -0.01636321
     atom    8 type  2   force =     0.00056313   -0.00011925    0.00053598
     atom    9 type  1   force =     0.00013164    0.00035206   -0.13610824
     atom   10 type  2   force =     0.00016666   -0.00003312    0.07515727
     atom   11 type  1   force =     0.00126777   -0.00086592   -0.06005130
     atom   12 type  2   force =     0.00605264   -0.00011106    0.00856771
     atom   13 type  1   force =     0.00012062   -0.00015703   -0.00044460
     atom   14 type  2   force =    -0.00198431    0.00292167   -0.00895519
     atom   15 type  1   force =     0.01088899   -0.00754795   -0.01662797
     atom   16 type  2   force =     0.00708025    0.00009200    0.01055558
     atom   17 type  2   force =    -0.00002377   -0.00005623    0.08004290
     atom   18 type  1   force =    -0.00005997    0.00022680    0.11905484
     atom   19 type  2   force =     0.00039200    0.00018858   -0.06808309
     atom   20 type  2   force =    -0.06269250    0.00005039   -0.03208320
     atom   21 type  2   force =     0.06274264    0.00015231   -0.03255578
     atom   22 type  1   force =    -0.00049299   -0.00012678    0.06424921
     atom   23 type  2   force =     0.00015832    0.00061412   -0.00259119
     atom   24 type  2   force =     0.00049734    0.00003841   -0.02237793
     atom   25 type  2   force =    -0.00645076   -0.00025667    0.00825448
     atom   26 type  1   force =    -0.00011437   -0.00005410    0.00249692
     atom   27 type  2   force =     0.00248391   -0.00140110   -0.00242276
     atom   28 type  2   force =    -0.00002395   -0.00001798   -0.00146462
     atom   29 type  2   force =     0.00010983   -0.00005614   -0.00052682
     atom   30 type  1   force =     0.00577561    0.00035756   -0.00055726
     atom   31 type  2   force =    -0.00216516    0.00161330    0.00097613
     atom   32 type  2   force =     0.00156386   -0.00009711    0.00178940
     atom   33 type  2   force =    -0.00000000    0.00015431    0.08011385
     atom   34 type  1   force =    -0.00007558    0.00023478    0.11906047
     atom   35 type  2   force =     0.00035893    0.00032538   -0.06803654
     atom   36 type  2   force =    -0.06269008    0.00009915   -0.03229217
     atom   37 type  2   force =     0.06285755    0.00017226   -0.03204380
     atom   38 type  1   force =    -0.00069475    0.00000843    0.06408549
     atom   39 type  2   force =     0.00019323   -0.00081653   -0.00257958
     atom   40 type  2   force =     0.00060783   -0.00227803   -0.02253643
     atom   41 type  2   force =    -0.00619284   -0.00030866    0.00765693
     atom   42 type  1   force =    -0.00009915   -0.00008595    0.00248985
     atom   43 type  2   force =     0.00253934    0.00139571   -0.00245737
     atom   44 type  2   force =     0.00037382   -0.00012877   -0.00070756
     atom   45 type  2   force =    -0.00023592   -0.00006350   -0.00093808
     atom   46 type  1   force =    -0.01877807    0.00042551   -0.00485979
     atom   47 type  2   force =    -0.00218094   -0.00147493    0.00098897
     atom   48 type  2   force =    -0.00063657   -0.00044684   -0.02746897
     atom   49 type  2   force =    -0.05070253    0.00067973    0.17670658
     atom   50 type  3   force =    -0.04179772    0.00235349   -0.05830137
     atom   51 type  3   force =     0.07564887   -0.00129671   -0.04931968

     Total force =     0.430333     Total SCF correction =     0.001352
 !ASE

     Writing output data file calc.save

     General routines

     Parallel routines

   This run was terminated on:  12: 4:42  10Mar2018

   JOB DONE.