     Program PWSCF v.5.1rc2 (svn rev. ) starts on 26Feb2018 at 15:52:31

     Current dimensions of program PWSCF are:
     Max number of different atomic species (ntypx) = 10
     Max number of k-points (npk) =  40000
     Max angular momentum in pseudopotentials (lmaxx) =  3

     IMPORTANT: XC functional enforced from input :
     Exchange-correlation      = BEEF ( 1  4 27 13 2)
     Any further DFT definition will be discarded
     Please, verify this is what you really want

     Subspace diagonalization in iterative solution of the eigenvalue problem:
     a serial algorithm will be used

     Generating pointlists ...
     new r_m :   0.4125 (alat units)  0.7795 (a.u.) for type    1
     new r_m :   0.4125 (alat units)  0.7795 (a.u.) for type    2
     new r_m :   0.4125 (alat units)  0.7795 (a.u.) for type    3
     new r_m :   0.4125 (alat units)  0.7795 (a.u.) for type    4

     bravais-lattice index     =            0
     lattice parameter (alat)  =       1.8897  a.u.
     unit-cell volume          =    7990.9933 (a.u.)^3
     number of atoms/cell      =           54
     number of atomic types    =            4
     number of electrons       =       398.00
     number of Kohn-Sham states=          299
     kinetic-energy cutoff     =      40.4243  Ry
     charge density cutoff     =     404.2426  Ry
     convergence threshold     =      7.3E-07
     mixing beta               =       0.1000
     number of iterations used =           10  plain     mixing
     Exchange-correlation      = BEEF ( 1  4 27 13 2)
     nstep                     =           50

     celldm(1)=   1.889726  celldm(2)=   0.000000  celldm(3)=   0.000000
     celldm(4)=   0.000000  celldm(5)=   0.000000  celldm(6)=   0.000000

     crystal axes: (cart. coord. in units of alat)
               a(1) = (   6.590708   0.000000   0.000000 )
               a(2) = (   0.000000   5.950229   0.000000 )
               a(3) = (   0.000000   0.000000  30.195235 )

     reciprocal axes: (cart. coord. in units 2 pi/alat)
               b(1) = (  0.151729  0.000000  0.000000 )
               b(2) = (  0.000000  0.168061  0.000000 )
               b(3) = (  0.000000  0.000000  0.033118 )

     PseudoPot. # 1 for Ti read from file:
     /home/alatimer/bin/psp/esp_psp_w_gbrvRu/Ti.UPF
     MD5 check sum: 8e4df49b7f0d34bbd5052bf3f5ea0213
     Pseudo is Ultrasoft, Zval = 12.0
     Generated by new atomic code, or converted to UPF format
     Using radial grid of  851 points,  6 beta functions with:
                l(1) =   0
                l(2) =   0
                l(3) =   1
                l(4) =   1
                l(5) =   2
                l(6) =   2
     Q(r) pseudized with  8 coefficients,  rinner =    1.000   1.000   1.000
                                                       1.000   1.000

     PseudoPot. # 2 for  O read from file:
     /home/alatimer/bin/psp/esp_psp_w_gbrvRu/O.UPF
     MD5 check sum: e057bbcf3229fb5d8c36c0c92f9568b4
     Pseudo is Ultrasoft + core correction, Zval =  6.0
     Generated using "atomic" code by A. Dal Corso  v.5.0.2 svn rev. 9415
     Using radial grid of 1095 points,  4 beta functions with:
                l(1) =   0
                l(2) =   0
                l(3) =   1
                l(4) =   1
     Q(r) pseudized with 0 coefficients

     PseudoPot. # 3 for  C read from file:
     /home/alatimer/bin/psp/esp_psp_w_gbrvRu/C.UPF
     MD5 check sum: ab446d787031eba755f1d5ee46644bb0
     Pseudo is Ultrasoft + core correction, Zval =  4.0
     Generated using "atomic" code by A. Dal Corso  v.5.0.2 svn rev. 9415
     Using radial grid of 1073 points,  4 beta functions with:
                l(1) =   0
                l(2) =   0
                l(3) =   1
                l(4) =   1
     Q(r) pseudized with 0 coefficients

     PseudoPot. # 4 for  H read from file:
     /home/alatimer/bin/psp/esp_psp_w_gbrvRu/H.UPF
     MD5 check sum: bd57da0722753ddfd9833a65b40bb853
     Pseudo is Ultrasoft, Zval =  1.0
     Generated using "atomic" code by A. Dal Corso  v.5.0.2 svn rev. 9415
     Using radial grid of  929 points,  2 beta functions with:
                l(1) =   0
                l(2) =   0
     Q(r) pseudized with 0 coefficients

     vdW kernel table read from file vdW_kernel_table
     MD5 check sum: 095c7af220d748ca6e76c0b4c6cfb241

     atomic species   valence    mass     pseudopotential
        Ti1           12.00    47.88000     Ti( 1.00)
        O1             6.00    15.99940      O( 1.00)
        C1             4.00    12.01100      C( 1.00)
        H1             1.00     1.00794      H( 1.00)

     Starting magnetic structure
     atomic species   magnetization
        Ti1          0.250
        O1           0.500
        C1           0.750
        H1           0.000

     No symmetry found

   Cartesian axes

     site n.     atom                  positions (alat units)
         1           Ti1 tau(   1) = (   1.6476770   0.7437786   2.6545865  )
         2           O1  tau(   2) = (   1.6476770   2.2313359   3.9361215  )
         3           Ti1 tau(   3) = (   1.6476770   2.2313359   5.9499405  )
         4           O1  tau(   4) = (   0.3661420   0.7437786   5.9499405  )
         5           Ti1 tau(   5) = (   1.6407309   0.9134410   9.3139491  )
         6           O1  tau(   6) = (   1.6648823   2.2608486  10.4895904  )
         7           Ti1 tau(   7) = (   1.7578240   2.2899216  13.0472362  )
         8           O1  tau(   8) = (   0.4801583   0.7600008  12.7739736  )
         9           Ti1 tau(   9) = (   1.6476770   3.7188931   2.6545865  )
        10           O1  tau(  10) = (   1.6476770   5.2064503   3.9361215  )
        11           Ti1 tau(  11) = (   1.6476770   5.2064503   5.9499405  )
        12           O1  tau(  12) = (   0.3661420   3.7188931   5.9499405  )
        13           Ti1 tau(  13) = (   1.6336050   3.7786827   9.1566831  )
        14           O1  tau(  14) = (   1.6678212   5.2513959  10.5409436  )
        15           Ti1 tau(  15) = (   1.7144009   5.2558216  12.3462911  )
        16           O1  tau(  16) = (   0.4635505   3.7986228  12.7318280  )
        17           O1  tau(  17) = (   1.6476770   2.2313359   1.3730516  )
        18           Ti1 tau(  18) = (   4.9430310   2.2313359   2.6545865  )
        19           O1  tau(  19) = (   4.9430310   2.2313359   4.6684056  )
        20           O1  tau(  20) = (   6.2245660   0.7437786   2.6545865  )
        21           O1  tau(  21) = (   3.6614961   0.7437786   2.6545865  )
        22           Ti1 tau(  22) = (   4.9430310   0.7437786   5.9499405  )
        23           O1  tau(  23) = (   1.6683653   2.2752577   7.9427336  )
        24           O1  tau(  24) = (   4.9430310   2.2313359   7.2314755  )
        25           O1  tau(  25) = (   2.9292120   0.7437786   5.9499405  )
        26           Ti1 tau(  26) = (   4.9404121   2.2664794   9.4552217  )
        27           O1  tau(  27) = (   5.0099888   2.2616732  11.2946145  )
        28           O1  tau(  28) = (   6.2612001   0.7714827   9.2659748  )
        29           O1  tau(  29) = (   3.6791272   0.7744986   9.2965846  )
        30           Ti1 tau(  30) = (   5.0117873   0.7976728  12.8161605  )
        31           O1  tau(  31) = (   4.9963122   2.2836652  13.8750618  )
        32           O1  tau(  32) = (   2.9819382   0.7448324  12.7109220  )
        33           O1  tau(  33) = (   1.6476770   5.2064503   1.3730516  )
        34           Ti1 tau(  34) = (   4.9430310   5.2064503   2.6545865  )
        35           O1  tau(  35) = (   4.9430310   5.2064503   4.6684056  )
        36           O1  tau(  36) = (   6.2245660   3.7188931   2.6545865  )
        37           O1  tau(  37) = (   3.6614961   3.7188931   2.6545865  )
        38           Ti1 tau(  38) = (   4.9430310   3.7188931   5.9499405  )
        39           O1  tau(  39) = (   1.6664207   5.2035600   7.9365221  )
        40           O1  tau(  40) = (   4.9430310   5.2064503   7.2314755  )
        41           O1  tau(  41) = (   2.9292120   3.7188931   5.9499405  )
        42           Ti1 tau(  42) = (   4.9524353   5.2460635   9.4426343  )
        43           O1  tau(  43) = (   5.0107556   5.2394944  11.2927493  )
        44           O1  tau(  44) = (   6.2663940   3.7551737   9.2646230  )
        45           O1  tau(  45) = (   3.6780957   3.7542261   9.2971476  )
        46           Ti1 tau(  46) = (   5.0587989   3.7766986  12.8010349  )
        47           O1  tau(  47) = (   5.0196089   5.2502198  13.8813978  )
        48           O1  tau(  48) = (   2.9624133   3.7943242  12.7299881  )
        49           O1  tau(  49) = (   1.7427453   2.2533568  14.8370015  )
        50           C1  tau(  50) = (   2.7196098   4.2826273  16.2318421  )
        51           H1  tau(  51) = (   3.3037454   4.9255546  15.5827400  )
        52           H1  tau(  52) = (   3.3286606   3.7870117  16.9522022  )
        53           H1  tau(  53) = (   2.3125587   3.4026405  15.5729816  )
        54           H1  tau(  54) = (   1.8391288   4.7650601  16.6448379  )

     number of k points=    40  Fermi-Dirac smearing, width (Ry)=  0.0073
                       cart. coord. in units 2pi/alat
        k(    1) = (   0.0000000   0.0000000   0.0000000), wk =   0.0277778
        k(    2) = (   0.0000000   0.0280101   0.0000000), wk =   0.0555556
        k(    3) = (   0.0000000   0.0560203   0.0000000), wk =   0.0555556
        k(    4) = (   0.0000000  -0.0840304   0.0000000), wk =   0.0277778
        k(    5) = (   0.0252881   0.0000000   0.0000000), wk =   0.0555556
        k(    6) = (   0.0252881   0.0280101   0.0000000), wk =   0.0555556
        k(    7) = (   0.0252881   0.0560203   0.0000000), wk =   0.0555556
        k(    8) = (   0.0252881  -0.0840304   0.0000000), wk =   0.0555556
        k(    9) = (   0.0505763   0.0000000   0.0000000), wk =   0.0555556
        k(   10) = (   0.0505763   0.0280101   0.0000000), wk =   0.0555556
        k(   11) = (   0.0505763   0.0560203   0.0000000), wk =   0.0555556
        k(   12) = (   0.0505763  -0.0840304   0.0000000), wk =   0.0555556
        k(   13) = (  -0.0758644   0.0000000   0.0000000), wk =   0.0277778
        k(   14) = (  -0.0758644   0.0280101   0.0000000), wk =   0.0555556
        k(   15) = (  -0.0758644   0.0560203   0.0000000), wk =   0.0555556
        k(   16) = (  -0.0758644  -0.0840304   0.0000000), wk =   0.0277778
        k(   17) = (  -0.0252881   0.0280101   0.0000000), wk =   0.0555556
        k(   18) = (  -0.0252881   0.0560203   0.0000000), wk =   0.0555556
        k(   19) = (  -0.0505763   0.0280101   0.0000000), wk =   0.0555556
        k(   20) = (  -0.0505763   0.0560203   0.0000000), wk =   0.0555556
        k(   21) = (   0.0000000   0.0000000   0.0000000), wk =   0.0277778
        k(   22) = (   0.0000000   0.0280101   0.0000000), wk =   0.0555556
        k(   23) = (   0.0000000   0.0560203   0.0000000), wk =   0.0555556
        k(   24) = (   0.0000000  -0.0840304   0.0000000), wk =   0.0277778
        k(   25) = (   0.0252881   0.0000000   0.0000000), wk =   0.0555556
        k(   26) = (   0.0252881   0.0280101   0.0000000), wk =   0.0555556
[...]
     atom:   48    charge:    2.0838    magn:    0.0136    constr:    0.0000
     atom:   49    charge:    2.0518    magn:    0.2398    constr:    0.0000
     atom:   50    charge:    0.6725    magn:    0.0547    constr:    0.0000
     atom:   51    charge:    0.4220    magn:    0.0009    constr:    0.0000
     atom:   52    charge:    0.4330    magn:    0.0008    constr:    0.0000
     atom:   53    charge:    0.3676    magn:    0.0231    constr:    0.0000
     atom:   54    charge:    0.4229    magn:    0.0006    constr:    0.0000

     total energy              =   -3021.14881516 Ry
     Harris-Foulkes estimate   =   -3021.15000926 Ry
     estimated scf accuracy    <       0.00732748 Ry

     total magnetization       =     1.05 Bohr mag/cell
     absolute magnetization    =     1.22 Bohr mag/cell

     iteration #  2     ecut=    40.42 Ry     beta=0.10
     Davidson diagonalization with overlap
     c_bands:  1 eigenvalues not converged
     c_bands:  1 eigenvalues not converged
     ethr =  1.84E-06,  avg # of iterations =  8.2

[...]

     total energy              =   -3021.14933690 Ry
     Harris-Foulkes estimate   =   -3021.14933688 Ry
     estimated scf accuracy    <       0.00000074 Ry

[...]

     iteration # 11     ecut=    40.42 Ry     beta=0.10
     Davidson diagonalization with overlap
     ethr =  1.85E-10,  avg # of iterations =  3.0

     negative rho (up, down):  1.191E-02 1.198E-02

     Magnetic moment per site:
     atom:    1    charge:    3.1244    magn:   -0.0001    constr:    0.0000
     atom:    2    charge:    2.0897    magn:    0.0001    constr:    0.0000
     atom:    3    charge:    3.1198    magn:   -0.0000    constr:    0.0000
     atom:    4    charge:    2.0867    magn:   -0.0001    constr:    0.0000
     atom:    5    charge:    3.1161    magn:   -0.0003    constr:    0.0000
     atom:    6    charge:    2.0795    magn:    0.0022    constr:    0.0000
     atom:    7    charge:    3.1167    magn:   -0.0052    constr:    0.0000
     atom:    8    charge:    2.0793    magn:    0.0249    constr:    0.0000
     atom:    9    charge:    3.1244    magn:   -0.0001    constr:    0.0000
     atom:   10    charge:    2.0898    magn:    0.0001    constr:    0.0000
     atom:   11    charge:    3.1198    magn:   -0.0000    constr:    0.0000
     atom:   12    charge:    2.0870    magn:   -0.0000    constr:    0.0000
     atom:   13    charge:    3.1150    magn:   -0.0002    constr:    0.0000
     atom:   14    charge:    2.0939    magn:    0.0022    constr:    0.0000
     atom:   15    charge:    3.1184    magn:   -0.0008    constr:    0.0000
     atom:   16    charge:    2.0828    magn:    0.0047    constr:    0.0000
     atom:   17    charge:    2.0625    magn:    0.0007    constr:    0.0000
     atom:   18    charge:    3.1240    magn:   -0.0000    constr:    0.0000
     atom:   19    charge:    2.0875    magn:    0.0000    constr:    0.0000
     atom:   20    charge:    2.0847    magn:    0.0000    constr:    0.0000
     atom:   21    charge:    2.0847    magn:    0.0000    constr:    0.0000
     atom:   22    charge:    3.1199    magn:    0.0000    constr:    0.0000
     atom:   23    charge:    2.0908    magn:    0.0003    constr:    0.0000
     atom:   24    charge:    2.0754    magn:   -0.0000    constr:    0.0000
     atom:   25    charge:    2.0867    magn:    0.0000    constr:    0.0000
     atom:   26    charge:    3.1127    magn:   -0.0003    constr:    0.0000
     atom:   27    charge:    2.0802    magn:    0.0027    constr:    0.0000
     atom:   28    charge:    2.0839    magn:    0.0008    constr:    0.0000
     atom:   29    charge:    2.0860    magn:    0.0009    constr:    0.0000
     atom:   30    charge:    3.1171    magn:   -0.0008    constr:    0.0000
     atom:   31    charge:    2.0825    magn:    0.0006    constr:    0.0000
     atom:   32    charge:    2.0829    magn:    0.0065    constr:    0.0000
     atom:   33    charge:    2.0625    magn:    0.0007    constr:    0.0000
     atom:   34    charge:    3.1240    magn:   -0.0000    constr:    0.0000
     atom:   35    charge:    2.0875    magn:    0.0000    constr:    0.0000
     atom:   36    charge:    2.0847    magn:    0.0000    constr:    0.0000
     atom:   37    charge:    2.0847    magn:    0.0000    constr:    0.0000
     atom:   38    charge:    3.1200    magn:    0.0000    constr:    0.0000
     atom:   39    charge:    2.0839    magn:    0.0002    constr:    0.0000
     atom:   40    charge:    2.0756    magn:   -0.0001    constr:    0.0000
     atom:   41    charge:    2.0870    magn:   -0.0000    constr:    0.0000
     atom:   42    charge:    3.1151    magn:   -0.0003    constr:    0.0000
     atom:   43    charge:    2.0803    magn:    0.0032    constr:    0.0000
     atom:   44    charge:    2.0851    magn:    0.0010    constr:    0.0000
     atom:   45    charge:    2.0858    magn:    0.0006    constr:    0.0000
     atom:   46    charge:    3.1148    magn:   -0.0007    constr:    0.0000
     atom:   47    charge:    2.0807    magn:    0.0047    constr:    0.0000
     atom:   48    charge:    2.0837    magn:    0.0135    constr:    0.0000
     atom:   49    charge:    2.0518    magn:    0.2395    constr:    0.0000
     atom:   50    charge:    0.6744    magn:    0.0548    constr:    0.0000
     atom:   51    charge:    0.4222    magn:    0.0008    constr:    0.0000
     atom:   52    charge:    0.4347    magn:    0.0009    constr:    0.0000
     atom:   53    charge:    0.3675    magn:    0.0234    constr:    0.0000
     atom:   54    charge:    0.4228    magn:    0.0006    constr:    0.0000

     End of self-consistent calculation

 ------ SPIN UP ------------

          k = 0.0000 0.0000 0.0000 ( 34665 PWs)   bands (ev):

   -58.3046 -58.2696 -57.3861 -57.3804 -57.3474 -57.3097 -57.2583 -57.0894
   -57.0628 -57.0573 -57.0189 -56.9207 -56.8956 -56.8854 -56.8002 -56.7619
   -34.7498 -34.5732 -34.5444 -34.5112 -34.4162 -34.3594 -33.8811 -33.8688
   -33.7507 -33.6777 -33.6357 -33.5928 -33.5606 -33.5536 -33.5477 -33.5412
   -33.5295 -33.5147 -33.4893 -33.4879 -33.4734 -33.4716 -33.4690 -33.4500
   -33.3401 -33.3352 -33.3300 -33.3275 -33.3145 -33.2865 -33.2810 -33.2614
   -33.2406 -33.2358 -33.2351 -33.2257 -33.1970 -33.1751 -33.1403 -33.1392
   -33.1008 -33.0782 -33.0493 -33.0279 -33.0147 -32.9891 -32.9477 -32.8816
   -18.4697 -18.0366 -17.8123 -17.7122 -17.5514 -17.5302 -17.4858 -17.3843
   -17.3574 -17.2577 -17.0454 -17.0246 -17.0169 -16.9852 -16.9245 -16.8546
   -16.8358 -16.7981 -16.7403 -16.7079 -16.6892 -16.6567 -16.5932 -16.5888
   -16.4660 -16.4183 -16.3994 -16.3615 -16.3257 -16.1469 -16.0863 -15.6000
   -15.5392 -11.2456  -6.0483  -5.4968  -5.2827  -5.2028  -5.0939  -4.9921
    -4.9820  -4.9211  -4.8790  -4.7328  -4.6501  -4.6000  -4.5858  -4.5105
    -4.4292  -4.4138  -4.3526  -4.3164  -4.2330  -4.2189  -4.1959  -4.1423
    -4.0312  -4.0238  -3.9797  -3.9083  -3.8921  -3.8861  -3.8834  -3.8249
    -3.7956  -3.7768  -3.7499  -3.6663  -3.6305  -3.5833  -3.5415  -3.5282
    -3.5157  -3.4193  -3.4081  -3.3606  -3.2731  -3.2326  -3.1881  -3.0870
    -2.9211  -2.8967  -2.8509  -2.8025  -2.7457  -2.6938  -2.6722  -2.6615
    -2.6335  -2.5368  -2.4860  -2.4386  -2.3776  -2.3325  -2.2482  -2.2294
    -2.2248  -2.1599  -2.0692  -2.0411  -1.9989  -1.9591  -1.9296  -1.8985
    -1.8532  -1.7372  -1.6937  -1.6680  -1.6402  -1.6303  -1.5858  -1.5035
    -1.4204  -1.3667  -1.3524  -1.3374  -1.3137  -1.2689  -1.2235  -1.1703
    -1.1595  -1.1107  -1.1077  -1.0921  -1.0632  -0.9796  -0.8730  -0.8317
    -0.8081  -0.6931  -0.6867  -0.6241  -0.5522  -0.5107  -0.4830  -0.1862
     1.0263   1.1231   1.4179   1.6966   1.8047   1.9225   1.9703   2.0166
     2.0466   2.1343   2.2110   2.2317   2.2778   2.3967   2.4719   2.4853
     2.4929   2.5199   2.6225   2.6676   2.6726   2.6888   2.7114   2.8281
     2.8432   2.8878   2.9021   2.9545   2.9697   3.0227   3.0313   3.0529
     3.1067   3.1617   3.2003   3.2012   3.2489   3.2569   3.4123   3.4466
     3.4792   3.5217   3.5989   3.6274   3.6715   3.7154   3.8299   3.9571
     4.1051   4.1368   4.3276   4.4741   4.5954   4.7075   4.7856   4.8361
     5.0861   5.1341   5.2110   5.3549   5.3990   5.4042   5.4273   5.4340
     5.4497   5.5239   5.5558   5.6633   5.7198   5.7364   5.9075   5.9193
     5.9568   6.0763   6.0954   6.1377   6.2185   6.2969   6.4234   6.4908
     6.5435   6.5644   6.7835   6.8148   7.2134   7.9164   8.1533   8.1776
     8.3509   8.3907   8.6517   8.7234   8.7536   8.9836   9.1470   9.2484
     9.3055   9.4553   9.6236

[...]

          k =-0.0759 0.0000 0.0000 ( 34758 PWs)   bands (ev):

[...]

 ------ SPIN DOWN ----------

[...]

          k = 0.0506-0.0840 0.0000 ( 34628 PWs)   bands (ev):

[...]

          k =-0.0506 0.0560 0.0000 ( 34596 PWs)   bands (ev):

   -58.2961 -58.2785 -57.3805 -57.3741 -57.3561 -57.3132 -57.2580 -57.0927
   -57.0643 -57.0526 -57.0271 -56.9204 -56.9127 -56.8950 -56.7946 -56.7748
   -34.6556 -34.5662 -34.5517 -34.4860 -34.4600 -34.4398 -33.7864 -33.7807
   -33.6802 -33.6327 -33.6125 -33.5883 -33.5867 -33.5839 -33.5671 -33.5659
   -33.5429 -33.5299 -33.5284 -33.4946 -33.4906 -33.4640 -33.4417 -33.4141
   -33.3700 -33.3226 -33.3081 -33.3056 -33.2845 -33.2746 -33.2576 -33.2558
   -33.2547 -33.2459 -33.2422 -33.2390 -33.2204 -33.2136 -33.1793 -33.1564
   -33.1177 -33.0753 -33.0728 -33.0496 -33.0389 -33.0218 -33.0093 -32.9833
   -18.1066 -17.8177 -17.6998 -17.6121 -17.5960 -17.5560 -17.3788 -17.3675
   -17.2172 -17.2047 -17.1157 -17.0935 -16.9760 -16.9105 -16.8660 -16.8409
   -16.8221 -16.8060 -16.7602 -16.7342 -16.7194 -16.6259 -16.5951 -16.5048
   -16.4945 -16.4364 -16.4193 -16.4093 -16.2152 -16.1965 -15.8791 -15.6370
   -15.6152 -10.8480  -5.3006  -4.9903  -4.9398  -4.9317  -4.7819  -4.7742
    -4.7150  -4.6383  -4.5249  -4.5049  -4.4991  -4.4163  -4.4019  -4.3792
    -4.3596  -4.3260  -4.3078  -4.2464  -4.1988  -4.1746  -4.1647  -4.1117
    -4.1010  -4.0561  -4.0429  -3.9915  -3.9778  -3.9024  -3.8837  -3.8269
    -3.7800  -3.7161  -3.6923  -3.6720  -3.6092  -3.5556  -3.5028  -3.4322
    -3.3953  -3.3183  -3.2592  -3.2296  -3.1330  -3.1292  -3.0785  -3.0505
    -2.9941  -2.9763  -2.9566  -2.9012  -2.7989  -2.7623  -2.7476  -2.7044
    -2.6281  -2.5859  -2.5440  -2.5013  -2.4767  -2.4127  -2.3878  -2.3680
    -2.3493  -2.2882  -2.1933  -2.1706  -2.1456  -2.1270  -2.1012  -2.0464
    -2.0115  -1.9698  -1.9426  -1.8692  -1.8468  -1.7801  -1.7292  -1.6551
    -1.5646  -1.5475  -1.5371  -1.4951  -1.4422  -1.3836  -1.3513  -1.3045
    -1.2425  -1.1740  -1.0753  -1.0202  -0.9868  -0.9015  -0.8508  -0.8435
    -0.7916  -0.7052  -0.6909  -0.6696  -0.6544  -0.5516  -0.4736   0.3093
     1.3098   1.4994   1.6482   1.6699   1.8546   2.0056   2.0343   2.0698
     2.2454   2.2583   2.3624   2.3788   2.4351   2.4637   2.5504   2.5874
     2.6527   2.6978   2.7319   2.7465   2.8137   2.8447   2.8732   2.9056
     2.9363   2.9531   3.0089   3.0439   3.0746   3.1157   3.1472   3.1927
     3.1977   3.2526   3.2868   3.3269   3.3359   3.3791   3.4183   3.4690
     3.4835   3.5512   3.5805   3.6432   3.6697   3.7466   3.8065   3.8424
     3.8853   3.9622   4.1545   4.5061   4.5988   4.6180   4.7567   4.8242
     4.8908   4.9672   5.0124   5.1889   5.3040   5.3781   5.4136   5.4458
     5.5966   5.6183   5.6702   5.7191   5.8814   5.8989   5.9893   6.0082
     6.0701   6.1107   6.1717   6.2084   6.3158   6.3388   6.4146   6.4256
     6.5426   6.6163   6.7635   6.8097   7.1903   7.3620   7.5112   7.6207
     7.9355   8.0136   8.1040   8.3862   8.6095   8.7196   8.8051   9.0421
     9.1922   9.3332   9.4374

     the Fermi energy is    -0.2891 ev

!    total energy              =   -3021.14933667 Ry
     Harris-Foulkes estimate   =   -3021.14933697 Ry
     estimated scf accuracy    <       0.00000042 Ry

     The total energy is the sum of the following terms:

     one-electron contribution =  -40440.17868292 Ry
     hartree contribution      =   20291.45354130 Ry
     xc contribution           =    -553.22464642 Ry
     ewald contribution        =   17680.82024321 Ry
     smearing contrib. (-TS)   =      -0.01979184 Ry

     total magnetization       =     1.06 Bohr mag/cell
     absolute magnetization    =     1.23 Bohr mag/cell

     convergence has been achieved in  11 iterations

     Forces acting on atoms (Ry/au):

     negative rho (up, down):  1.191E-02 1.198E-02
     atom    1 type  1   force =     0.00018480   -0.00089920   -0.10470845
     atom    2 type  2   force =     0.00014565    0.00068365    0.04005906
     atom    3 type  1   force =     0.00074953   -0.00175227   -0.02052587
     atom    4 type  2   force =    -0.00326787    0.00312225   -0.00321422
     atom    5 type  1   force =     0.00034836    0.00007442    0.00032770
     atom    6 type  2   force =    -0.00013101   -0.00010770    0.00018270
     atom    7 type  1   force =    -0.00026134   -0.00000370   -0.00025964
     atom    8 type  2   force =    -0.00016941   -0.00017909   -0.00022183
     atom    9 type  1   force =    -0.00003226    0.00056615   -0.10484076
     atom   10 type  2   force =     0.00034898   -0.00021328    0.03603398
     atom   11 type  1   force =     0.00068148    0.00183832    0.00263505
     atom   12 type  2   force =    -0.00519550   -0.00266934   -0.00517654
     atom   13 type  1   force =     0.00041704    0.00008790   -0.00025281
     atom   14 type  2   force =     0.00013301   -0.00007631   -0.00008408
     atom   15 type  1   force =    -0.00005375   -0.00007795    0.00005993
     atom   16 type  2   force =    -0.00020721    0.00001018   -0.00035224
     atom   17 type  2   force =     0.00000831   -0.00001450    0.06648677
     atom   18 type  1   force =     0.00005820    0.00002982    0.13146737
     atom   19 type  2   force =     0.00017772   -0.00052924   -0.08520053
     atom   20 type  2   force =    -0.05791571    0.00014362   -0.03605906
     atom   21 type  2   force =     0.05780736   -0.00004927   -0.03602127
     atom   22 type  1   force =    -0.00042942    0.00074955    0.08018776
     atom   23 type  2   force =     0.00019904   -0.00004688    0.00005168
     atom   24 type  2   force =     0.00064147    0.00185989   -0.03467681
     atom   25 type  2   force =     0.00414203    0.00332554   -0.00508120
     atom   26 type  1   force =     0.00040337   -0.00004630    0.00006955
     atom   27 type  2   force =    -0.00009611   -0.00013196    0.00004984
     atom   28 type  2   force =     0.00004345   -0.00019616   -0.00002223
     atom   29 type  2   force =     0.00002021   -0.00007381    0.00007412
     atom   30 type  1   force =    -0.00021901   -0.00018979    0.00005647
     atom   31 type  2   force =     0.00011082   -0.00006514    0.00000548
     atom   32 type  2   force =    -0.00010925   -0.00000015    0.00007818
     atom   33 type  2   force =    -0.00016635    0.00004965    0.06622024
     atom   34 type  1   force =     0.00007698   -0.00003337    0.13124546
     atom   35 type  2   force =     0.00018903   -0.00013017   -0.08480921
     atom   36 type  2   force =    -0.05781132    0.00006406   -0.03567322
     atom   37 type  2   force =     0.05798160   -0.00017595   -0.03607188
     atom   38 type  1   force =    -0.00037298   -0.00020416    0.07985958
     atom   39 type  2   force =     0.00007528   -0.00026949   -0.00008096
     atom   40 type  2   force =     0.00048997    0.00123886   -0.03528247
     atom   41 type  2   force =     0.00588919   -0.00243400   -0.00720693
     atom   42 type  1   force =     0.00024063   -0.00006988    0.00000935
     atom   43 type  2   force =    -0.00019444   -0.00009843    0.00004589
     atom   44 type  2   force =    -0.00000572   -0.00015918   -0.00003279
     atom   45 type  2   force =     0.00002209   -0.00017025    0.00005289
     atom   46 type  1   force =    -0.00020093   -0.00005359   -0.00001584
     atom   47 type  2   force =    -0.00001955   -0.00016285    0.00008138
     atom   48 type  2   force =    -0.00012034   -0.00000580    0.00025167
     atom   49 type  2   force =    -0.00031983   -0.00032434   -0.00009109
     atom   50 type  3   force =    -0.01358051    0.01126167   -0.02038793
     atom   51 type  4   force =    -0.00221941    0.00006163   -0.00124582
     atom   52 type  4   force =     0.01343021   -0.01203667    0.02178486
     atom   53 type  4   force =    -0.00207618   -0.00045990   -0.00099151
     atom   54 type  4   force =     0.00015961   -0.00105706    0.00121026

     Total force =     0.344496     Total SCF correction =     0.002443
 !ASE

     Writing output data file calc.save

     General routines

     Parallel routines

   This run was terminated on:  16:51:42  26Feb2018

   JOB DONE.