     Program PWSCF v.5.1rc2 (svn rev. ) starts on 10Feb2018 at 16:40: 3

     Current dimensions of program PWSCF are:
     Max number of different atomic species (ntypx) = 10
     Max number of k-points (npk) =  40000
     Max angular momentum in pseudopotentials (lmaxx) =  3

     IMPORTANT: XC functional enforced from input :
     Exchange-correlation      = BEEF ( 1  4 27 13 2)
     Any further DFT definition will be discarded
     Please, verify this is what you really want

     Subspace diagonalization in iterative solution of the eigenvalue problem:
     a serial algorithm will be used

     Generating pointlists ...
     new r_m :   0.4125 (alat units)  0.7795 (a.u.) for type    1
     new r_m :   0.4125 (alat units)  0.7795 (a.u.) for type    2

     bravais-lattice index     =            0
     lattice parameter (alat)  =       1.8897  a.u.
     unit-cell volume          =    7990.9933 (a.u.)^3
     number of atoms/cell      =           49
     number of atomic types    =            2
     number of electrons       =       390.00
     number of Kohn-Sham states=          295
     kinetic-energy cutoff     =      40.4243  Ry
     charge density cutoff     =     404.2426  Ry
     convergence threshold     =      7.3E-07
     mixing beta               =       0.1000
     number of iterations used =           10  plain     mixing
     Exchange-correlation      = BEEF ( 1  4 27 13 2)
     nstep                     =           50

     celldm(1)=   1.889726  celldm(2)=   0.000000  celldm(3)=   0.000000
     celldm(4)=   0.000000  celldm(5)=   0.000000  celldm(6)=   0.000000

     crystal axes: (cart. coord. in units of alat)
               a(1) = (   6.590708   0.000000   0.000000 )
               a(2) = (   0.000000   5.950229   0.000000 )
               a(3) = (   0.000000   0.000000  30.195235 )

     reciprocal axes: (cart. coord. in units 2 pi/alat)
               b(1) = (  0.151729  0.000000  0.000000 )
               b(2) = (  0.000000  0.168061  0.000000 )
               b(3) = (  0.000000  0.000000  0.033118 )

     PseudoPot. # 1 for Ti read from file:
     /home/alatimer/bin/psp/esp_psp_w_gbrvRu/Ti.UPF
     MD5 check sum: 8e4df49b7f0d34bbd5052bf3f5ea0213
     Pseudo is Ultrasoft, Zval = 12.0
     Generated by new atomic code, or converted to UPF format
     Using radial grid of  851 points,  6 beta functions with:
                l(1) =   0
                l(2) =   0
                l(3) =   1
                l(4) =   1
                l(5) =   2
                l(6) =   2
     Q(r) pseudized with  8 coefficients,  rinner =    1.000   1.000   1.000
                                                       1.000   1.000

     PseudoPot. # 2 for  O read from file:
     /home/alatimer/bin/psp/esp_psp_w_gbrvRu/O.UPF
     MD5 check sum: e057bbcf3229fb5d8c36c0c92f9568b4
     Pseudo is Ultrasoft + core correction, Zval =  6.0
     Generated using "atomic" code by A. Dal Corso  v.5.0.2 svn rev. 9415
     Using radial grid of 1095 points,  4 beta functions with:
                l(1) =   0
                l(2) =   0
                l(3) =   1
                l(4) =   1
     Q(r) pseudized with 0 coefficients

     vdW kernel table read from file vdW_kernel_table
     MD5 check sum: 095c7af220d748ca6e76c0b4c6cfb241

     atomic species   valence    mass     pseudopotential
        Ti1           12.00    47.88000     Ti( 1.00)
        O1             6.00    15.99940      O( 1.00)

     Starting magnetic structure
     atomic species   magnetization
        Ti1          0.250
        O1           0.500

     No symmetry found

   Cartesian axes

     site n.     atom                  positions (alat units)
         1           Ti1 tau(   1) = (   1.6476770   0.7437786   2.6545865  )
         2           O1  tau(   2) = (   1.6476770   2.2313359   3.9361215  )
         3           Ti1 tau(   3) = (   1.6476770   2.2313359   5.9499405  )
         4           O1  tau(   4) = (   0.3661420   0.7437786   5.9499405  )
         5           Ti1 tau(   5) = (   1.5277661   0.7316361   9.1979924  )
         6           O1  tau(   6) = (   1.6632133   2.1793878  10.6093433  )
         7           Ti1 tau(   7) = (   1.6165400   2.1742892  12.4450098  )
         8           O1  tau(   8) = (   0.4211133   0.7189415  12.7146628  )
         9           Ti1 tau(   9) = (   1.6476770   3.7188931   2.6545865  )
        10           O1  tau(  10) = (   1.6476770   5.2064503   3.9361215  )
        11           Ti1 tau(  11) = (   1.6476770   5.2064503   5.9499405  )
        12           O1  tau(  12) = (   0.3661420   3.7188931   5.9499405  )
        13           Ti1 tau(  13) = (   1.5318737   3.7073984   9.2114718  )
        14           O1  tau(  14) = (   1.6603548   5.2054729  10.6082275  )
        15           Ti1 tau(  15) = (   1.6160620   5.2125286  12.4458513  )
        16           O1  tau(  16) = (   0.3672395   3.6890226  12.4512313  )
        17           O1  tau(  17) = (   1.6476770   2.2313359   1.3730516  )
        18           Ti1 tau(  18) = (   4.9430310   2.2313359   2.6545865  )
        19           O1  tau(  19) = (   4.9430310   2.2313359   4.6684056  )
        20           O1  tau(  20) = (   6.2245660   0.7437786   2.6545865  )
        21           O1  tau(  21) = (   3.6614961   0.7437786   2.6545865  )
        22           Ti1 tau(  22) = (   4.9430310   0.7437786   5.9499405  )
        23           O1  tau(  23) = (   1.6494130   2.2266810   8.0229920  )
        24           O1  tau(  24) = (   4.9430310   2.2313359   7.2314755  )
        25           O1  tau(  25) = (   2.9292120   0.7437786   5.9499405  )
        26           Ti1 tau(  26) = (   4.8570045   2.2038353   9.3960648  )
        27           O1  tau(  27) = (   4.9365002   2.1563787  11.2526517  )
        28           O1  tau(  28) = (   6.2661622   0.7265345   9.2570196  )
        29           O1  tau(  29) = (   3.6607207   0.7252434   9.2585875  )
        30           Ti1 tau(  30) = (   4.8804456   0.7009689  12.7500804  )
        31           O1  tau(  31) = (   4.9885443   2.2055297  13.8060867  )
        32           O1  tau(  32) = (   2.8787315   0.7196740  12.7638696  )
        33           O1  tau(  33) = (   1.6476770   5.2064503   1.3730516  )
        34           Ti1 tau(  34) = (   4.9430310   5.2064503   2.6545865  )
        35           O1  tau(  35) = (   4.9430310   5.2064503   4.6684056  )
        36           O1  tau(  36) = (   6.2245660   3.7188931   2.6545865  )
        37           O1  tau(  37) = (   3.6614961   3.7188931   2.6545865  )
        38           Ti1 tau(  38) = (   4.9430310   3.7188931   5.9499405  )
        39           O1  tau(  39) = (   1.6492404   5.1840375   8.0235373  )
        40           O1  tau(  40) = (   4.9430310   5.2064503   7.2314755  )
        41           O1  tau(  41) = (   2.9292120   3.7188931   5.9499405  )
        42           Ti1 tau(  42) = (   4.8583452   5.1875290   9.3946917  )
        43           O1  tau(  43) = (   4.9366536   5.2195535  11.2514306  )
        44           O1  tau(  44) = (   6.2660656   3.7009687   9.2894568  )
        45           O1  tau(  45) = (   3.6605616   3.6984666   9.2954459  )
        46           Ti1 tau(  46) = (   5.1078939   3.6751672  12.7268755  )
        47           O1  tau(  47) = (   4.9880347   5.1576104  13.8055399  )
        48           O1  tau(  48) = (   3.0285069   3.6936269  12.4216869  )
        49           O1  tau(  49) = (   2.3558682   3.6994311  13.7464468  )

     number of k points=    40  Fermi-Dirac smearing, width (Ry)=  0.0073
                       cart. coord. in units 2pi/alat
        k(    1) = (   0.0000000   0.0000000   0.0000000), wk =   0.0277778
        k(    2) = (   0.0000000   0.0280101   0.0000000), wk =   0.0555556
        k(    3) = (   0.0000000   0.0560203   0.0000000), wk =   0.0555556
        k(    4) = (   0.0000000  -0.0840304   0.0000000), wk =   0.0277778
        k(    5) = (   0.0252881   0.0000000   0.0000000), wk =   0.0555556
        k(    6) = (   0.0252881   0.0280101   0.0000000), wk =   0.0555556
        k(    7) = (   0.0252881   0.0560203   0.0000000), wk =   0.0555556
        k(    8) = (   0.0252881  -0.0840304   0.0000000), wk =   0.0555556
        k(    9) = (   0.0505763   0.0000000   0.0000000), wk =   0.0555556
        k(   10) = (   0.0505763   0.0280101   0.0000000), wk =   0.0555556
        k(   11) = (   0.0505763   0.0560203   0.0000000), wk =   0.0555556
        k(   12) = (   0.0505763  -0.0840304   0.0000000), wk =   0.0555556
        k(   13) = (  -0.0758644   0.0000000   0.0000000), wk =   0.0277778
        k(   14) = (  -0.0758644   0.0280101   0.0000000), wk =   0.0555556
        k(   15) = (  -0.0758644   0.0560203   0.0000000), wk =   0.0555556
        k(   16) = (  -0.0758644  -0.0840304   0.0000000), wk =   0.0277778
        k(   17) = (  -0.0252881   0.0280101   0.0000000), wk =   0.0555556
        k(   18) = (  -0.0252881   0.0560203   0.0000000), wk =   0.0555556
        k(   19) = (  -0.0505763   0.0280101   0.0000000), wk =   0.0555556
        k(   20) = (  -0.0505763   0.0560203   0.0000000), wk =   0.0555556
        k(   21) = (   0.0000000   0.0000000   0.0000000), wk =   0.0277778
        k(   22) = (   0.0000000   0.0280101   0.0000000), wk =   0.0555556
        k(   23) = (   0.0000000   0.0560203   0.0000000), wk =   0.0555556
        k(   24) = (   0.0000000  -0.0840304   0.0000000), wk =   0.0277778
        k(   25) = (   0.0252881   0.0000000   0.0000000), wk =   0.0555556
        k(   26) = (   0.0252881   0.0280101   0.0000000), wk =   0.0555556
        k(   27) = (   0.0252881   0.0560203   0.0000000), wk =   0.0555556
        k(   28) = (   0.0252881  -0.0840304   0.0000000), wk =   0.0555556
        k(   29) = (   0.0505763   0.0000000   0.0000000), wk =   0.0555556
        k(   30) = (   0.0505763   0.0280101   0.0000000), wk =   0.0555556
        k(   31) = (   0.0505763   0.0560203   0.0000000), wk =   0.0555556
        k(   32) = (   0.0505763  -0.0840304   0.0000000), wk =   0.0555556
        k(   33) = (  -0.0758644   0.0000000   0.0000000), wk =   0.0277778
        k(   34) = (  -0.0758644   0.0280101   0.0000000), wk =   0.0555556
        k(   35) = (  -0.0758644   0.0560203   0.0000000), wk =   0.0555556
        k(   36) = (  -0.0758644  -0.0840304   0.0000000), wk =   0.0277778
        k(   37) = (  -0.0252881   0.0280101   0.0000000), wk =   0.0555556
        k(   38) = (  -0.0252881   0.0560203   0.0000000), wk =   0.0555556
        k(   39) = (  -0.0505763   0.0280101   0.0000000), wk =   0.0555556
        k(   40) = (  -0.0505763   0.0560203   0.0000000), wk =   0.0555556

     Largest allocated arrays     est. size (Mb)     dimensions
     Largest temporary arrays     est. size (Mb)     dimensions

     Check: negative/imaginary core charge=   -0.000049    0.000000

     The initial density is read from file :
     ./calc.save/charge-density.dat

     negative rho (up, down):  1.430E-02 1.430E-02

     *
     * You are using vdW-DF for exchange-correlation in this calculation.
     * Please cite the following three references that made this development
     * possible:
     *
[...]
     atom:   29    charge:    2.0875    magn:   -0.0001    constr:    0.0000
     atom:   30    charge:    3.1184    magn:    0.0000    constr:    0.0000
     atom:   31    charge:    2.0828    magn:   -0.0001    constr:    0.0000
     atom:   32    charge:    2.0852    magn:   -0.0001    constr:    0.0000
     atom:   33    charge:    2.0622    magn:    0.0006    constr:    0.0000
     atom:   34    charge:    3.1239    magn:   -0.0001    constr:    0.0000
     atom:   35    charge:    2.0878    magn:   -0.0000    constr:    0.0000
     atom:   36    charge:    2.0846    magn:    0.0001    constr:    0.0000
     atom:   37    charge:    2.0846    magn:    0.0001    constr:    0.0000
     atom:   38    charge:    3.1196    magn:    0.0000    constr:    0.0000
     atom:   39    charge:    2.0909    magn:   -0.0001    constr:    0.0000
     atom:   40    charge:    2.0790    magn:   -0.0000    constr:    0.0000
     atom:   41    charge:    2.0869    magn:   -0.0001    constr:    0.0000
     atom:   42    charge:    3.1146    magn:    0.0000    constr:    0.0000
     atom:   43    charge:    2.0817    magn:   -0.0001    constr:    0.0000
     atom:   44    charge:    2.0857    magn:   -0.0001    constr:    0.0000
     atom:   45    charge:    2.0874    magn:   -0.0001    constr:    0.0000
     atom:   46    charge:    3.1233    magn:    0.0001    constr:    0.0000
     atom:   47    charge:    2.0837    magn:   -0.0001    constr:    0.0000
     atom:   48    charge:    2.0647    magn:   -0.0001    constr:    0.0000
     atom:   49    charge:    2.0415    magn:   -0.0001    constr:    0.0000

     total energy              =   -3004.20118629 Ry
     Harris-Foulkes estimate   =   -3004.21818916 Ry
     estimated scf accuracy    <       0.11070126 Ry

     total magnetization       =     0.00 Bohr mag/cell
     absolute magnetization    =     0.01 Bohr mag/cell

[...]

     total energy              =   -3004.17579659 Ry
     Harris-Foulkes estimate   =   -3004.17579586 Ry
     estimated scf accuracy    <       0.00000077 Ry

[...]

     iteration # 11     ecut=    40.42 Ry     beta=0.10
     Davidson diagonalization with overlap
     ethr =  1.99E-10,  avg # of iterations =  2.0

     negative rho (up, down):  1.430E-02 1.430E-02

     Magnetic moment per site:
     atom:    1    charge:    3.1251    magn:   -0.0000    constr:    0.0000
     atom:    2    charge:    2.0895    magn:    0.0000    constr:    0.0000
     atom:    3    charge:    3.1196    magn:   -0.0000    constr:    0.0000
     atom:    4    charge:    2.0871    magn:   -0.0000    constr:    0.0000
     atom:    5    charge:    3.1167    magn:    0.0000    constr:    0.0000
     atom:    6    charge:    2.0890    magn:   -0.0000    constr:    0.0000
     atom:    7    charge:    3.1218    magn:    0.0000    constr:    0.0000
     atom:    8    charge:    2.0874    magn:   -0.0000    constr:    0.0000
     atom:    9    charge:    3.1251    magn:   -0.0000    constr:    0.0000
     atom:   10    charge:    2.0895    magn:    0.0000    constr:    0.0000
     atom:   11    charge:    3.1196    magn:   -0.0000    constr:    0.0000
     atom:   12    charge:    2.0871    magn:   -0.0000    constr:    0.0000
     atom:   13    charge:    3.1147    magn:    0.0000    constr:    0.0000
     atom:   14    charge:    2.0876    magn:   -0.0000    constr:    0.0000
     atom:   15    charge:    3.1176    magn:    0.0000    constr:    0.0000
     atom:   16    charge:    2.1006    magn:   -0.0000    constr:    0.0000
     atom:   17    charge:    2.0622    magn:    0.0001    constr:    0.0000
     atom:   18    charge:    3.1239    magn:   -0.0000    constr:    0.0000
     atom:   19    charge:    2.0877    magn:    0.0000    constr:    0.0000
     atom:   20    charge:    2.0846    magn:    0.0000    constr:    0.0000
     atom:   21    charge:    2.0846    magn:    0.0000    constr:    0.0000
     atom:   22    charge:    3.1196    magn:    0.0000    constr:    0.0000
     atom:   23    charge:    2.0903    magn:   -0.0000    constr:    0.0000
     atom:   24    charge:    2.0789    magn:   -0.0000    constr:    0.0000
     atom:   25    charge:    2.0869    magn:   -0.0000    constr:    0.0000
     atom:   26    charge:    3.1149    magn:    0.0000    constr:    0.0000
     atom:   27    charge:    2.0818    magn:   -0.0000    constr:    0.0000
     atom:   28    charge:    2.0885    magn:   -0.0000    constr:    0.0000
     atom:   29    charge:    2.0876    magn:   -0.0000    constr:    0.0000
     atom:   30    charge:    3.1182    magn:    0.0000    constr:    0.0000
     atom:   31    charge:    2.0832    magn:   -0.0000    constr:    0.0000
     atom:   32    charge:    2.0862    magn:   -0.0000    constr:    0.0000
     atom:   33    charge:    2.0622    magn:    0.0001    constr:    0.0000
     atom:   34    charge:    3.1239    magn:   -0.0000    constr:    0.0000
     atom:   35    charge:    2.0878    magn:    0.0000    constr:    0.0000
     atom:   36    charge:    2.0846    magn:    0.0000    constr:    0.0000
     atom:   37    charge:    2.0846    magn:    0.0000    constr:    0.0000
     atom:   38    charge:    3.1196    magn:    0.0000    constr:    0.0000
     atom:   39    charge:    2.0910    magn:   -0.0000    constr:    0.0000
     atom:   40    charge:    2.0790    magn:   -0.0000    constr:    0.0000
     atom:   41    charge:    2.0869    magn:   -0.0000    constr:    0.0000
     atom:   42    charge:    3.1146    magn:    0.0000    constr:    0.0000
     atom:   43    charge:    2.0817    magn:   -0.0000    constr:    0.0000
     atom:   44    charge:    2.0857    magn:   -0.0000    constr:    0.0000
     atom:   45    charge:    2.0874    magn:   -0.0000    constr:    0.0000
     atom:   46    charge:    3.1241    magn:    0.0000    constr:    0.0000
     atom:   47    charge:    2.0842    magn:   -0.0000    constr:    0.0000
     atom:   48    charge:    2.0680    magn:   -0.0000    constr:    0.0000
     atom:   49    charge:    2.0449    magn:   -0.0000    constr:    0.0000

     End of self-consistent calculation

 ------ SPIN UP ------------

          k = 0.0000 0.0000 0.0000 ( 34665 PWs)   bands (ev):

   -58.2572 -58.2222 -58.0912 -58.0521 -57.9292 -57.8810 -57.7091 -57.6737
   -57.6530 -57.6177 -57.5786 -57.5423 -57.3922 -57.2263 -56.7039 -56.6687
   -34.6925 -34.6616 -34.5394 -34.5110 -34.4751 -34.4579 -34.4000 -34.3637
   -34.3566 -34.3108 -34.3028 -34.2866 -34.2133 -34.2044 -34.1977 -34.1463
   -34.1457 -34.1103 -34.1022 -34.0892 -34.0656 -33.9945 -33.9044 -33.8872
   -33.8710 -33.8611 -33.8565 -33.8413 -33.8258 -33.8219 -33.8113 -33.8092
   -33.7762 -33.7668 -33.7539 -33.7365 -33.7088 -33.6961 -33.6315 -33.6052
   -33.4578 -33.3902 -33.1224 -33.0562 -33.0301 -32.9266 -32.8349 -32.7262
   -22.4091 -18.6029 -18.4153 -18.3067 -18.0868 -17.9420 -17.8943 -17.8233
   -17.6577 -17.6204 -17.5487 -17.5199 -17.5105 -17.4630 -17.4384 -17.4037
   -17.3703 -17.3017 -17.2633 -17.1654 -17.1304 -17.0120 -17.0111 -16.9748
   -16.8619 -16.7735 -16.7503 -16.7298 -16.5967 -16.5680 -15.8131 -15.2832
   -15.1980  -6.9304  -6.5117  -6.2439  -5.9757  -5.9325  -5.7923  -5.7288
    -5.4669  -5.4177  -5.3621  -5.0873  -5.0428  -4.9981  -4.9777  -4.8878
    -4.8618  -4.7928  -4.7244  -4.6630  -4.6572  -4.6388  -4.5831  -4.5731
    -4.5292  -4.5157  -4.4972  -4.4340  -4.3467  -4.2997  -4.2482  -4.1963
    -4.1698  -4.1064  -4.0946  -4.0657  -4.0195  -3.9639  -3.9601  -3.9394
    -3.8481  -3.6510  -3.5997  -3.5465  -3.4677  -3.4652  -3.4337  -3.2924
    -3.1980  -3.1838  -3.1671  -3.1481  -3.0040  -2.9753  -2.9398  -2.9263
    -2.8649  -2.8269  -2.7926  -2.7688  -2.7627  -2.6919  -2.6784  -2.6075
    -2.5380  -2.4867  -2.4030  -2.3397  -2.2196  -2.1477  -2.1402  -2.0735
    -2.0583  -1.9975  -1.9308  -1.9002  -1.8884  -1.8825  -1.8303  -1.7795
    -1.7622  -1.7194  -1.6724  -1.6396  -1.6154  -1.5631  -1.5265  -1.3755
    -1.2553  -1.2005  -1.1616  -1.1406  -1.0392  -0.7831  -0.6523  -0.6384
    -0.4272  -0.3010  -0.2871   1.0853   1.1115   1.2020   1.3907   1.4448
     1.4519   1.5337   1.6211   1.6628   1.7839   1.8741   1.8864   1.9442
     1.9602   1.9745   2.0056   2.0651   2.0924   2.1050   2.1517   2.1564
     2.2429   2.2542   2.3033   2.3136   2.5049   2.5084   2.5474   2.5560
     2.5623   2.6163   2.6267   2.6386   2.6712   2.7068   2.7618   2.8433
     2.8452   2.8767   2.9077   2.9715   3.0528   3.0536   3.1338   3.3867
     3.5242   3.5300   3.6239   3.6514   3.6735   3.7847   3.8319   4.0367
     4.0863   4.2152   4.4988   4.5133   4.6162   4.6568   4.7739   4.9182
     4.9355   5.0165   5.1364   5.1909   5.2024   5.2466   5.2671   5.2745
     5.3274   5.3848   5.4917   5.5480   5.5894   5.6411   5.6787   5.7821
     5.9004   5.9848   6.0296   6.3639   6.4104   6.4637   6.5605   6.7451
     7.1852   7.8069   7.9777   8.3156   8.5655   8.5934   8.8150   8.8596
     8.9289   9.1858   9.2322   9.3149   9.3479   9.5709   9.6707

[...]

          k =-0.0759 0.0000 0.0000 ( 34758 PWs)   bands (ev):

[...]

 ------ SPIN DOWN ----------

[...]

          k = 0.0506-0.0840 0.0000 ( 34628 PWs)   bands (ev):

[...]

          k =-0.0506 0.0560 0.0000 ( 34596 PWs)   bands (ev):

   -58.2486 -58.2311 -58.0827 -58.0606 -57.9235 -57.8866 -57.7002 -57.6825
   -57.6444 -57.6265 -57.5702 -57.5507 -57.3906 -57.2279 -56.6953 -56.6777
   -34.5983 -34.5621 -34.5322 -34.5179 -34.4331 -34.4031 -34.3871 -34.3853
   -34.3737 -34.3498 -34.3341 -34.3207 -34.2885 -34.1956 -34.1527 -34.1337
   -34.1285 -34.1099 -34.1071 -34.0522 -33.9937 -33.9504 -33.9161 -33.8969
   -33.8825 -33.8790 -33.8675 -33.8554 -33.8400 -33.8334 -33.8325 -33.8227
   -33.8000 -33.7868 -33.7734 -33.7653 -33.7361 -33.6964 -33.6288 -33.6051
   -33.4917 -33.4584 -33.0516 -33.0362 -33.0258 -32.9042 -32.8582 -32.8280
   -22.3844 -18.3102 -18.1184 -18.0512 -17.9391 -17.8289 -17.8173 -17.7801
   -17.7438 -17.7299 -17.6934 -17.6180 -17.6055 -17.5032 -17.4472 -17.4197
   -17.4180 -17.3578 -17.2646 -17.2362 -17.1782 -17.1448 -17.1033 -16.9558
   -16.8414 -16.8116 -16.7827 -16.7465 -16.7354 -16.6674 -15.7930 -15.3081
   -15.2716  -6.6617  -6.3244  -6.1995  -5.5938  -5.2526  -5.2176  -5.1854
    -5.1352  -5.1070  -5.0875  -5.0500  -5.0301  -4.9644  -4.8989  -4.8715
    -4.8640  -4.7876  -4.7681  -4.7144  -4.7070  -4.6703  -4.6514  -4.6231
    -4.5987  -4.5890  -4.5314  -4.4812  -4.4638  -4.4110  -4.3412  -4.2705
    -4.2171  -4.1868  -4.0993  -4.0112  -3.9524  -3.9146  -3.8470  -3.8155
    -3.6756  -3.6215  -3.5635  -3.5065  -3.4869  -3.4481  -3.3839  -3.3567
    -3.2980  -3.2629  -3.2305  -3.1901  -3.1157  -3.0905  -3.0500  -3.0023
    -2.9450  -2.9203  -2.8989  -2.8659  -2.8430  -2.7857  -2.7486  -2.7375
    -2.6965  -2.6787  -2.5768  -2.5359  -2.5179  -2.4743  -2.4425  -2.3800
    -2.3162  -2.2552  -2.1837  -2.1219  -2.0442  -1.9952  -1.9619  -1.9016
    -1.8778  -1.8244  -1.7544  -1.6667  -1.6281  -1.5626  -1.5312  -1.4725
    -1.3778  -1.3517  -1.2886  -1.2374  -1.2238  -1.0570  -0.9114  -0.4713
    -0.4353  -0.4188  -0.3611   1.3020   1.4339   1.5191   1.5223   1.6309
     1.6556   1.6942   1.7042   1.7576   1.8304   1.8506   1.9415   1.9797
     2.0004   2.0276   2.0414   2.0720   2.1398   2.1611   2.2119   2.2445
     2.2631   2.3468   2.4089   2.4367   2.4446   2.4792   2.5448   2.5651
     2.6993   2.7240   2.7717   2.7820   2.8477   2.8615   2.8932   2.9278
     2.9927   3.0575   3.0738   3.1766   3.2026   3.2607   3.3157   3.3509
     3.3649   3.3765   3.5517   3.5968   3.6863   3.7310   3.8282   3.8485
     4.0972   4.2415   4.2536   4.3057   4.4541   4.4799   4.5731   4.6797
     4.7141   4.7716   4.8753   5.0102   5.1484   5.2203   5.2795   5.3563
     5.4837   5.5277   5.6316   5.7595   5.7876   5.7958   5.8483   5.9940
     6.0735   6.0952   6.1711   6.2690   6.3433   6.4327   6.7606   6.9559
     7.1741   7.4499   7.6192   7.7304   8.0427   8.1040   8.1883   8.5325
     8.7099   8.7908   8.9083   9.0762   9.0917   9.4021   9.4764

     the Fermi energy is     0.4340 ev

!    total energy              =   -3004.17580035 Ry
     Harris-Foulkes estimate   =   -3004.17579664 Ry
     estimated scf accuracy    <       0.00000017 Ry

     The total energy is the sum of the following terms:

     one-electron contribution =  -42058.84000239 Ry
     hartree contribution      =   21091.79899832 Ry
     xc contribution           =    -546.23717365 Ry
     ewald contribution        =   18509.10261535 Ry
     smearing contrib. (-TS)   =      -0.00023798 Ry

     total magnetization       =     0.00 Bohr mag/cell
     absolute magnetization    =     0.00 Bohr mag/cell

     convergence has been achieved in  11 iterations

     Forces acting on atoms (Ry/au):

     negative rho (up, down):  1.430E-02 1.430E-02
     atom    1 type  1   force =    -0.00013458    0.00030068   -0.13695012
     atom    2 type  2   force =     0.00010187   -0.00008253    0.07534322
     atom    3 type  1   force =     0.00074640    0.00083941   -0.05919702
     atom    4 type  2   force =     0.00464102   -0.00033705    0.00933548
     atom    5 type  1   force =     0.00007067    0.00015205    0.00019899
     atom    6 type  2   force =    -0.00001746    0.00043639   -0.00189531
     atom    7 type  1   force =    -0.00069505   -0.00048489   -0.00028687
     atom    8 type  2   force =    -0.00071373   -0.00014714    0.00019611
     atom    9 type  1   force =    -0.00003283    0.00038829   -0.13696304
     atom   10 type  2   force =     0.00015712   -0.00025275    0.07536157
     atom   11 type  1   force =     0.00076184   -0.00086229   -0.05939735
     atom   12 type  2   force =     0.00429233   -0.00009185    0.00813021
     atom   13 type  1   force =    -0.00058576   -0.00060383    0.00023608
     atom   14 type  2   force =    -0.00013844   -0.00022624   -0.00037823
     atom   15 type  1   force =    -0.00140505    0.00107939   -0.00080648
     atom   16 type  2   force =    -0.00545491    0.00066278   -0.00368579
     atom   17 type  2   force =     0.00025790   -0.00009188    0.08098508
     atom   18 type  1   force =    -0.00017032    0.00034481    0.11718419
     atom   19 type  2   force =     0.00029123    0.00016655   -0.06545577
     atom   20 type  2   force =    -0.06317228   -0.00000789   -0.03167767
     atom   21 type  2   force =     0.06296866    0.00014757   -0.03162433
     atom   22 type  1   force =    -0.00064235    0.00001256    0.05923833
     atom   23 type  2   force =    -0.00012335    0.00026246   -0.00027932
     atom   24 type  2   force =     0.00059445   -0.00015743   -0.02269677
     atom   25 type  2   force =    -0.00449126   -0.00032116    0.00821690
     atom   26 type  1   force =     0.00003403    0.00046907    0.00005145
     atom   27 type  2   force =    -0.00025786    0.00011921   -0.00044610
     atom   28 type  2   force =    -0.00131496   -0.00006055   -0.00023311
     atom   29 type  2   force =     0.00027683   -0.00019290   -0.00008277
     atom   30 type  1   force =     0.00018923    0.00066999    0.00135022
     atom   31 type  2   force =    -0.00032833   -0.00019787   -0.00005554
     atom   32 type  2   force =     0.00018250   -0.00020755    0.00000443
     atom   33 type  2   force =     0.00019126    0.00007555    0.08095021
     atom   34 type  1   force =    -0.00022035    0.00026274    0.11710449
     atom   35 type  2   force =     0.00030459    0.00017889   -0.06548264
     atom   36 type  2   force =    -0.06310511    0.00013314   -0.03188370
     atom   37 type  2   force =     0.06315047    0.00019327   -0.03158237
     atom   38 type  1   force =    -0.00048874   -0.00021747    0.05893460
     atom   39 type  2   force =     0.00011307   -0.00049595   -0.00075443
     atom   40 type  2   force =     0.00038654   -0.00221073   -0.02227187
     atom   41 type  2   force =    -0.00418687   -0.00025238    0.00758585
     atom   42 type  1   force =    -0.00025951   -0.00046201    0.00000413
     atom   43 type  2   force =    -0.00032250   -0.00004058   -0.00022736
     atom   44 type  2   force =     0.00023352    0.00019505   -0.00001740
     atom   45 type  2   force =    -0.00014876   -0.00010812   -0.00024112
     atom   46 type  1   force =     0.00004697    0.00025646    0.00078763
     atom   47 type  2   force =    -0.00043229    0.00029866   -0.00023857
     atom   48 type  2   force =    -0.00411968    0.00089550    0.00968291
     atom   49 type  2   force =     0.01296983   -0.00042742   -0.00607104

     Total force =     0.365669     Total SCF correction =     0.001205
 !ASE

     Writing output data file calc.save

     General routines

     Parallel routines

   This run was terminated on:  19: 3: 3  10Feb2018

   JOB DONE.