     Program PWSCF v.5.1rc2 (svn rev. ) starts on 12Feb2018 at 10:31: 9

     Current dimensions of program PWSCF are:
     Max number of different atomic species (ntypx) = 10
     Max number of k-points (npk) =  40000
     Max angular momentum in pseudopotentials (lmaxx) =  3

     IMPORTANT: XC functional enforced from input :
     Exchange-correlation      = BEEF ( 1  4 27 13 2)
     Any further DFT definition will be discarded
     Please, verify this is what you really want

     Subspace diagonalization in iterative solution of the eigenvalue problem:
     a serial algorithm will be used

     Generating pointlists ...
     new r_m :   0.4125 (alat units)  0.7795 (a.u.) for type    1
     new r_m :   0.3995 (alat units)  0.7549 (a.u.) for type    2
     new r_m :   0.4125 (alat units)  0.7795 (a.u.) for type    3
     new r_m :   0.3995 (alat units)  0.7549 (a.u.) for type    4

     bravais-lattice index     =            0
     lattice parameter (alat)  =       1.8897  a.u.
     unit-cell volume          =    7990.9933 (a.u.)^3
     number of atoms/cell      =           54
     number of atomic types    =            4
     number of electrons       =       398.00
     number of Kohn-Sham states=          299
     kinetic-energy cutoff     =      40.4243  Ry
     charge density cutoff     =     404.2426  Ry
     convergence threshold     =      7.3E-07
     mixing beta               =       0.1000
     number of iterations used =           10  plain     mixing
     Exchange-correlation      = BEEF ( 1  4 27 13 2)
     nstep                     =           50

     celldm(1)=   1.889726  celldm(2)=   0.000000  celldm(3)=   0.000000
     celldm(4)=   0.000000  celldm(5)=   0.000000  celldm(6)=   0.000000

     crystal axes: (cart. coord. in units of alat)
               a(1) = (   6.590708   0.000000   0.000000 )
               a(2) = (   0.000000   5.950229   0.000000 )
               a(3) = (   0.000000   0.000000  30.195235 )

     reciprocal axes: (cart. coord. in units 2 pi/alat)
               b(1) = (  0.151729  0.000000  0.000000 )
               b(2) = (  0.000000  0.168061  0.000000 )
               b(3) = (  0.000000  0.000000  0.033118 )

     PseudoPot. # 1 for Ti read from file:
     /home/alatimer/bin/psp/esp_psp_w_gbrvRu/Ti.UPF
     MD5 check sum: 8e4df49b7f0d34bbd5052bf3f5ea0213
     Pseudo is Ultrasoft, Zval = 12.0
     Generated by new atomic code, or converted to UPF format
     Using radial grid of  851 points,  6 beta functions with:
                l(1) =   0
                l(2) =   0
                l(3) =   1
                l(4) =   1
                l(5) =   2
                l(6) =   2
     Q(r) pseudized with  8 coefficients,  rinner =    1.000   1.000   1.000
                                                       1.000   1.000

     PseudoPot. # 2 for  O read from file:
     /home/alatimer/bin/psp/esp_psp_w_gbrvRu/O.UPF
     MD5 check sum: e057bbcf3229fb5d8c36c0c92f9568b4
     Pseudo is Ultrasoft + core correction, Zval =  6.0
     Generated using "atomic" code by A. Dal Corso  v.5.0.2 svn rev. 9415
     Using radial grid of 1095 points,  4 beta functions with:
                l(1) =   0
                l(2) =   0
                l(3) =   1
                l(4) =   1
     Q(r) pseudized with 0 coefficients

     PseudoPot. # 3 for  C read from file:
     /home/alatimer/bin/psp/esp_psp_w_gbrvRu/C.UPF
     MD5 check sum: ab446d787031eba755f1d5ee46644bb0
     Pseudo is Ultrasoft + core correction, Zval =  4.0
     Generated using "atomic" code by A. Dal Corso  v.5.0.2 svn rev. 9415
     Using radial grid of 1073 points,  4 beta functions with:
                l(1) =   0
                l(2) =   0
                l(3) =   1
                l(4) =   1
     Q(r) pseudized with 0 coefficients

     PseudoPot. # 4 for  H read from file:
     /home/alatimer/bin/psp/esp_psp_w_gbrvRu/H.UPF
     MD5 check sum: bd57da0722753ddfd9833a65b40bb853
     Pseudo is Ultrasoft, Zval =  1.0
     Generated using "atomic" code by A. Dal Corso  v.5.0.2 svn rev. 9415
     Using radial grid of  929 points,  2 beta functions with:
                l(1) =   0
                l(2) =   0
     Q(r) pseudized with 0 coefficients

     vdW kernel table read from file vdW_kernel_table
     MD5 check sum: 095c7af220d748ca6e76c0b4c6cfb241

     atomic species   valence    mass     pseudopotential
        Ti1           12.00    47.88000     Ti( 1.00)
        O1             6.00    15.99940      O( 1.00)
        C1             4.00    12.01100      C( 1.00)
        H1             1.00     1.00794      H( 1.00)

     Starting magnetic structure
     atomic species   magnetization
        Ti1          0.250
        O1           0.500
        C1           0.750
        H1           0.000

     No symmetry found

   Cartesian axes

     site n.     atom                  positions (alat units)
         1           Ti1 tau(   1) = (   1.6476770   0.7437786   2.6545865  )
         2           O1  tau(   2) = (   1.6476770   2.2313359   3.9361215  )
         3           Ti1 tau(   3) = (   1.6476770   2.2313359   5.9499405  )
         4           O1  tau(   4) = (   0.3661420   0.7437786   5.9499405  )
         5           Ti1 tau(   5) = (   1.7592931   0.7557636   9.1813031  )
         6           O1  tau(   6) = (   1.6162490   2.2572048  10.5951269  )
         7           Ti1 tau(   7) = (   1.5595004   2.2680265  12.4668274  )
         8           O1  tau(   8) = (   0.3709531   0.7738127  12.6996540  )
         9           Ti1 tau(   9) = (   1.6476770   3.7188931   2.6545865  )
        10           O1  tau(  10) = (   1.6476770   5.2064503   3.9361215  )
        11           Ti1 tau(  11) = (   1.6476770   5.2064503   5.9499405  )
        12           O1  tau(  12) = (   0.3661420   3.7188931   5.9499405  )
        13           Ti1 tau(  13) = (   1.7607536   3.7112867   9.1949733  )
        14           O1  tau(  14) = (   1.6133076   5.2250699  10.5465640  )
        15           Ti1 tau(  15) = (   1.6492307   5.2431137  12.3448001  )
        16           O1  tau(  16) = (   0.3719744   3.7598389  12.7007434  )
        17           O1  tau(  17) = (   1.6476770   2.2313359   1.3730516  )
        18           Ti1 tau(  18) = (   4.9430310   2.2313359   2.6545865  )
        19           O1  tau(  19) = (   4.9430310   2.2313359   4.6684056  )
        20           O1  tau(  20) = (   6.2245660   0.7437786   2.6545865  )
        21           O1  tau(  21) = (   3.6614961   0.7437786   2.6545865  )
        22           Ti1 tau(  22) = (   4.9430310   0.7437786   5.9499405  )
        23           O1  tau(  23) = (   1.6387103   2.2391978   8.0037664  )
        24           O1  tau(  24) = (   4.9430310   2.2313359   7.2314755  )
        25           O1  tau(  25) = (   2.9292120   0.7437786   5.9499405  )
        26           Ti1 tau(  26) = (   5.0158092   2.2383949   9.3973727  )
        27           O1  tau(  27) = (   4.9391445   2.2276729  11.2675731  )
        28           O1  tau(  28) = (   6.2094020   0.7514556   9.2742047  )
        29           O1  tau(  29) = (   3.6131301   0.7515640   9.2682932  )
        30           Ti1 tau(  30) = (   4.8940083   0.8207741  12.7348365  )
        31           O1  tau(  31) = (   4.8487174   2.2703822  13.8475395  )
        32           O1  tau(  32) = (   2.8766274   0.7418004  12.6316555  )
        33           O1  tau(  33) = (   1.6476770   5.2064503   1.3730516  )
        34           Ti1 tau(  34) = (   4.9430310   5.2064503   2.6545865  )
        35           O1  tau(  35) = (   4.9430310   5.2064503   4.6684056  )
        36           O1  tau(  36) = (   6.2245660   3.7188931   2.6545865  )
        37           O1  tau(  37) = (   3.6614961   3.7188931   2.6545865  )
        38           Ti1 tau(  38) = (   4.9430310   3.7188931   5.9499405  )
        39           O1  tau(  39) = (   1.6418458   5.2133935   8.0066417  )
        40           O1  tau(  40) = (   4.9430310   5.2064503   7.2314755  )
        41           O1  tau(  41) = (   2.9292120   3.7188931   5.9499405  )
        42           Ti1 tau(  42) = (   5.0218241   5.2139137   9.3870600  )
        43           O1  tau(  43) = (   4.9399496   5.2040061  11.2598200  )
        44           O1  tau(  44) = (   6.2073000   3.7245411   9.2731052  )
        45           O1  tau(  45) = (   3.6137513   3.7232133   9.2682466  )
        46           Ti1 tau(  46) = (   4.8936935   3.8094630  12.7397413  )
        47           O1  tau(  47) = (   4.9051259   5.2510468  13.8339921  )
        48           O1  tau(  48) = (   2.8743370   3.7938830  12.6403791  )
        49           C1  tau(  49) = (   1.0587210   2.1968971  15.9066084  )
        50           O1  tau(  50) = (   1.8917182   2.2355032  14.7378010  )
        51           H1  tau(  51) = (   0.0310076   2.2200215  15.5603933  )
        52           H1  tau(  52) = (   2.8355400   2.2288152  14.9543747  )
        53           H1  tau(  53) = (   1.2478062   1.3326534  16.5039879  )
        54           H1  tau(  54) = (   1.2341453   3.1195140  16.5098874  )

     number of k points=    40  Fermi-Dirac smearing, width (Ry)=  0.0073
                       cart. coord. in units 2pi/alat
        k(    1) = (   0.0000000   0.0000000   0.0000000), wk =   0.0277778
        k(    2) = (   0.0000000   0.0280101   0.0000000), wk =   0.0555556
        k(    3) = (   0.0000000   0.0560203   0.0000000), wk =   0.0555556
        k(    4) = (   0.0000000  -0.0840304   0.0000000), wk =   0.0277778
        k(    5) = (   0.0252881   0.0000000   0.0000000), wk =   0.0555556
        k(    6) = (   0.0252881   0.0280101   0.0000000), wk =   0.0555556
        k(    7) = (   0.0252881   0.0560203   0.0000000), wk =   0.0555556
        k(    8) = (   0.0252881  -0.0840304   0.0000000), wk =   0.0555556
        k(    9) = (   0.0505763   0.0000000   0.0000000), wk =   0.0555556
        k(   10) = (   0.0505763   0.0280101   0.0000000), wk =   0.0555556
        k(   11) = (   0.0505763   0.0560203   0.0000000), wk =   0.0555556
        k(   12) = (   0.0505763  -0.0840304   0.0000000), wk =   0.0555556
        k(   13) = (  -0.0758644   0.0000000   0.0000000), wk =   0.0277778
        k(   14) = (  -0.0758644   0.0280101   0.0000000), wk =   0.0555556
        k(   15) = (  -0.0758644   0.0560203   0.0000000), wk =   0.0555556
        k(   16) = (  -0.0758644  -0.0840304   0.0000000), wk =   0.0277778
        k(   17) = (  -0.0252881   0.0280101   0.0000000), wk =   0.0555556
        k(   18) = (  -0.0252881   0.0560203   0.0000000), wk =   0.0555556
        k(   19) = (  -0.0505763   0.0280101   0.0000000), wk =   0.0555556
        k(   20) = (  -0.0505763   0.0560203   0.0000000), wk =   0.0555556
        k(   21) = (   0.0000000   0.0000000   0.0000000), wk =   0.0277778
        k(   22) = (   0.0000000   0.0280101   0.0000000), wk =   0.0555556
        k(   23) = (   0.0000000   0.0560203   0.0000000), wk =   0.0555556
        k(   24) = (   0.0000000  -0.0840304   0.0000000), wk =   0.0277778
        k(   25) = (   0.0252881   0.0000000   0.0000000), wk =   0.0555556
        k(   26) = (   0.0252881   0.0280101   0.0000000), wk =   0.0555556
[...]
     atom:   44    charge:    1.9517    magn:   -0.0001    constr:    0.0000
     atom:   45    charge:    1.9468    magn:   -0.0001    constr:    0.0000
     atom:   46    charge:    3.1164    magn:    0.0000    constr:    0.0000
     atom:   47    charge:    1.9431    magn:   -0.0000    constr:    0.0000
     atom:   48    charge:    1.9443    magn:   -0.0001    constr:    0.0000
     atom:   49    charge:    0.6575    magn:   -0.0001    constr:    0.0000
     atom:   50    charge:    1.9577    magn:   -0.0001    constr:    0.0000
     atom:   51    charge:    0.4022    magn:    0.0000    constr:    0.0000
     atom:   52    charge:    0.4006    magn:    0.0000    constr:    0.0000
     atom:   53    charge:    0.4057    magn:    0.0000    constr:    0.0000
     atom:   54    charge:    0.4016    magn:    0.0000    constr:    0.0000

     total energy              =   -3021.42332375 Ry
     Harris-Foulkes estimate   =   -3021.42558475 Ry
     estimated scf accuracy    <       0.01558889 Ry

     total magnetization       =     0.00 Bohr mag/cell
     absolute magnetization    =     0.01 Bohr mag/cell

[...]

     total energy              =   -3021.41844448 Ry
     Harris-Foulkes estimate   =   -3021.41844437 Ry
     estimated scf accuracy    <       0.00000079 Ry

[...]

     iteration #  9     ecut=    40.42 Ry     beta=0.10
     Davidson diagonalization with overlap
     ethr =  1.99E-10,  avg # of iterations =  3.1

     negative rho (up, down):  1.209E-02 1.209E-02

     Magnetic moment per site:
     atom:    1    charge:    3.1250    magn:   -0.0000    constr:    0.0000
     atom:    2    charge:    1.9452    magn:    0.0000    constr:    0.0000
     atom:    3    charge:    3.1198    magn:    0.0000    constr:    0.0000
     atom:    4    charge:    1.9504    magn:   -0.0000    constr:    0.0000
     atom:    5    charge:    3.1166    magn:    0.0000    constr:    0.0000
     atom:    6    charge:    1.9477    magn:   -0.0000    constr:    0.0000
     atom:    7    charge:    3.1157    magn:    0.0000    constr:    0.0000
     atom:    8    charge:    1.9452    magn:   -0.0000    constr:    0.0000
     atom:    9    charge:    3.1250    magn:   -0.0000    constr:    0.0000
     atom:   10    charge:    1.9452    magn:    0.0000    constr:    0.0000
     atom:   11    charge:    3.1197    magn:    0.0000    constr:    0.0000
     atom:   12    charge:    1.9504    magn:   -0.0000    constr:    0.0000
     atom:   13    charge:    3.1158    magn:    0.0000    constr:    0.0000
     atom:   14    charge:    1.9587    magn:   -0.0000    constr:    0.0000
     atom:   15    charge:    3.1188    magn:    0.0000    constr:    0.0000
     atom:   16    charge:    1.9446    magn:   -0.0000    constr:    0.0000
     atom:   17    charge:    1.9184    magn:    0.0001    constr:    0.0000
     atom:   18    charge:    3.1239    magn:   -0.0000    constr:    0.0000
     atom:   19    charge:    1.9408    magn:   -0.0000    constr:    0.0000
     atom:   20    charge:    1.9471    magn:    0.0000    constr:    0.0000
     atom:   21    charge:    1.9471    magn:    0.0000    constr:    0.0000
     atom:   22    charge:    3.1196    magn:    0.0000    constr:    0.0000
     atom:   23    charge:    1.9566    magn:   -0.0000    constr:    0.0000
     atom:   24    charge:    1.9379    magn:   -0.0000    constr:    0.0000
     atom:   25    charge:    1.9505    magn:   -0.0000    constr:    0.0000
     atom:   26    charge:    3.1145    magn:    0.0000    constr:    0.0000
     atom:   27    charge:    1.9398    magn:   -0.0000    constr:    0.0000
     atom:   28    charge:    1.9517    magn:   -0.0000    constr:    0.0000
     atom:   29    charge:    1.9476    magn:   -0.0000    constr:    0.0000
     atom:   30    charge:    3.1167    magn:    0.0000    constr:    0.0000
     atom:   31    charge:    1.9447    magn:   -0.0000    constr:    0.0000
     atom:   32    charge:    1.9440    magn:   -0.0000    constr:    0.0000
     atom:   33    charge:    1.9184    magn:    0.0001    constr:    0.0000
     atom:   34    charge:    3.1239    magn:   -0.0000    constr:    0.0000
     atom:   35    charge:    1.9408    magn:   -0.0000    constr:    0.0000
     atom:   36    charge:    1.9471    magn:    0.0000    constr:    0.0000
     atom:   37    charge:    1.9471    magn:    0.0000    constr:    0.0000
     atom:   38    charge:    3.1196    magn:    0.0000    constr:    0.0000
     atom:   39    charge:    1.9549    magn:   -0.0000    constr:    0.0000
     atom:   40    charge:    1.9383    magn:   -0.0000    constr:    0.0000
     atom:   41    charge:    1.9505    magn:   -0.0000    constr:    0.0000
     atom:   42    charge:    3.1141    magn:    0.0000    constr:    0.0000
     atom:   43    charge:    1.9413    magn:   -0.0000    constr:    0.0000
     atom:   44    charge:    1.9517    magn:   -0.0000    constr:    0.0000
     atom:   45    charge:    1.9468    magn:   -0.0000    constr:    0.0000
     atom:   46    charge:    3.1165    magn:    0.0000    constr:    0.0000
     atom:   47    charge:    1.9431    magn:   -0.0000    constr:    0.0000
     atom:   48    charge:    1.9444    magn:   -0.0000    constr:    0.0000
     atom:   49    charge:    0.6581    magn:   -0.0000    constr:    0.0000
     atom:   50    charge:    1.9578    magn:   -0.0000    constr:    0.0000
     atom:   51    charge:    0.4021    magn:    0.0000    constr:    0.0000
     atom:   52    charge:    0.4006    magn:    0.0000    constr:    0.0000
     atom:   53    charge:    0.4160    magn:    0.0000    constr:    0.0000
     atom:   54    charge:    0.3920    magn:    0.0000    constr:    0.0000

     End of self-consistent calculation

 ------ SPIN UP ------------

          k = 0.0000 0.0000 0.0000 ( 34665 PWs)   bands (ev):

   -57.6990 -57.6641 -57.3181 -57.2818 -57.2328 -57.1101 -57.0737 -57.0728
   -57.0511 -57.0380 -56.9903 -56.9549 -56.7309 -56.6934 -56.1496 -56.1144
   -34.1351 -33.9813 -33.9528 -33.9000 -33.8703 -33.8057 -33.7453 -33.6536
   -33.6187 -33.6055 -33.5680 -33.5410 -33.5189 -33.5080 -33.4900 -33.4858
   -33.4650 -33.4547 -33.4314 -33.3991 -33.3244 -33.2923 -33.2721 -33.2628
   -33.2551 -33.2545 -33.2434 -33.2434 -33.2374 -33.2299 -33.2295 -33.2128
   -33.1806 -33.1803 -33.1750 -33.1411 -33.1185 -32.9969 -32.9788 -32.9579
   -32.9085 -32.8056 -32.5674 -32.5020 -32.4759 -32.3716 -32.2800 -32.1717
   -20.2980 -18.0129 -17.8417 -17.5573 -17.4622 -17.3730 -17.2522 -17.0779
   -17.0666 -16.9748 -16.9391 -16.8845 -16.7843 -16.7781 -16.7296 -16.7077
   -16.7037 -16.6629 -16.6114 -16.6050 -16.5363 -16.4159 -16.4031 -16.3984
   -16.3218 -16.2681 -16.1949 -16.1677 -16.1502 -15.9798 -15.9300 -14.7340
   -14.6503 -11.4681  -7.2498  -5.4722  -5.3956  -5.3159  -5.2075  -5.1968
    -5.1460  -5.1248  -4.8395  -4.8173  -4.4723  -4.4432  -4.3597  -4.3556
    -4.3220  -4.2328  -4.0902  -4.0613  -4.0561  -4.0181  -3.9997  -3.9916
    -3.9609  -3.9525  -3.9514  -3.8404  -3.7887  -3.7658  -3.7371  -3.7191
    -3.6327  -3.6173  -3.5874  -3.5781  -3.5202  -3.5081  -3.4092  -3.3938
    -3.3736  -3.2710  -3.2386  -3.1923  -3.0138  -2.9357  -2.8791  -2.8347
    -2.6953  -2.6075  -2.5902  -2.5804  -2.5760  -2.5690  -2.4319  -2.4147
    -2.3364  -2.2695  -2.2477  -2.2051  -2.2006  -2.1659  -2.1390  -2.0932
    -2.0481  -2.0302  -2.0206  -1.8864  -1.8661  -1.7616  -1.7366  -1.6245
    -1.5434  -1.5413  -1.4911  -1.4808  -1.4637  -1.4238  -1.3239  -1.3097
    -1.3024  -1.2801  -1.2431  -1.1358  -1.0869  -1.0780  -1.0678  -1.0203
    -0.9551  -0.9159  -0.8189  -0.7645  -0.6107  -0.5878  -0.5695  -0.4795
    -0.3767  -0.2424  -0.0850  -0.0268   0.1311   0.2480   0.2616   1.6424
     1.6749   1.9854   2.0018   2.0651   2.0950   2.2047   2.2436   2.2868
     2.4297   2.4970   2.5257   2.5305   2.5418   2.6308   2.6488   2.6570
     2.7151   2.7994   2.8268   2.8387   2.9107   2.9997   3.0330   3.0989
     3.1050   3.1139   3.1608   3.2019   3.2080   3.2263   3.2397   3.2512
     3.2604   3.2887   3.3967   3.4314   3.4564   3.4662   3.5282   3.5854
     3.6530   3.6947   3.8076   3.9807   4.0160   4.0915   4.1797   4.3199
     4.3384   4.3916   4.5857   4.5991   4.8103   4.8385   5.0869   5.1666
     5.2455   5.3305   5.4787   5.5173   5.5274   5.5930   5.6778   5.7117
     5.7996   5.8651   5.8763   5.8861   5.9544   6.0386   6.0478   6.0722
     6.1443   6.2290   6.2432   6.2969   6.3779   6.5819   6.6360   6.7556
     6.8409   7.0070   7.0384   7.1597   7.3022   7.5763   7.9086   8.2523
     8.3340   8.6779   8.7945   8.8723   8.9390   9.0081   9.1745   9.2551
     9.3521   9.3810   9.5316

[...]

          k =-0.0759 0.0000 0.0000 ( 34758 PWs)   bands (ev):

[...]

 ------ SPIN DOWN ----------

[...]

          k = 0.0506-0.0840 0.0000 ( 34628 PWs)   bands (ev):

[...]

          k =-0.0506 0.0560 0.0000 ( 34596 PWs)   bands (ev):

   -57.6904 -57.6729 -57.3091 -57.2907 -57.2315 -57.1016 -57.0818 -57.0644
   -57.0523 -57.0468 -56.9815 -56.9637 -56.7218 -56.7025 -56.1410 -56.1234
   -34.0409 -33.9740 -33.9597 -33.8752 -33.8456 -33.8291 -33.7735 -33.5962
   -33.5748 -33.5723 -33.5356 -33.5216 -33.5155 -33.5111 -33.4771 -33.4736
   -33.4535 -33.4265 -33.4041 -33.3538 -33.3182 -33.3176 -33.3012 -33.2991
   -33.2867 -33.2768 -33.2679 -33.2605 -33.2538 -33.2535 -33.2478 -33.2397
   -33.2105 -33.2007 -33.1708 -33.1648 -33.1260 -32.9880 -32.9779 -32.9622
   -32.9264 -32.9030 -32.4974 -32.4820 -32.4710 -32.3492 -32.3033 -32.2733
   -20.2971 -17.7062 -17.5006 -17.2913 -17.2398 -17.1978 -17.1738 -17.1620
   -17.0899 -17.0371 -17.0061 -16.9136 -16.8567 -16.8491 -16.8446 -16.8065
   -16.7764 -16.7221 -16.6627 -16.6224 -16.6129 -16.5509 -16.5127 -16.3991
   -16.3435 -16.2637 -16.2263 -16.1932 -16.1565 -16.1136 -16.0385 -14.7601
   -14.7245 -11.4631  -7.2398  -5.4264  -5.2116  -5.0214  -4.6592  -4.6173
    -4.5155  -4.4995  -4.4839  -4.4564  -4.4324  -4.3676  -4.3248  -4.3017
    -4.2260  -4.2061  -4.1465  -4.1322  -4.0829  -4.0671  -4.0463  -4.0366
    -4.0144  -3.9966  -3.9689  -3.9149  -3.8945  -3.8885  -3.8218  -3.7877
    -3.7309  -3.6605  -3.6303  -3.5228  -3.4877  -3.3731  -3.3296  -3.2612
    -3.2584  -3.2457  -3.1424  -3.0138  -2.9339  -2.9042  -2.8515  -2.8296
    -2.7567  -2.7269  -2.6850  -2.6094  -2.5922  -2.5675  -2.5286  -2.4899
    -2.4286  -2.4064  -2.3660  -2.3291  -2.3167  -2.3003  -2.2556  -2.1780
    -2.1536  -2.1214  -2.1150  -2.0779  -2.0475  -2.0018  -1.9830  -1.9020
    -1.8915  -1.8522  -1.8329  -1.7244  -1.6377  -1.6062  -1.5731  -1.4786
    -1.4085  -1.3749  -1.3073  -1.2500  -1.2069  -1.1060  -1.0729  -1.0183
    -1.0027  -0.9367  -0.8537  -0.8188  -0.7705  -0.7562  -0.6921  -0.6571
    -0.6517  -0.5177  -0.3247   0.0780   0.1122   0.1301   0.1937   1.8668
     2.0767   2.1654   2.1996   2.2211   2.2437   2.2984   2.3480   2.3932
     2.4037   2.5375   2.5703   2.5793   2.6075   2.6283   2.6835   2.7547
     2.7821   2.8044   2.8389   2.8812   2.9635   3.0043   3.0284   3.0622
     3.0973   3.1363   3.1677   3.2569   3.3356   3.3674   3.3970   3.4410
     3.4789   3.4999   3.5218   3.5427   3.6150   3.6475   3.7115   3.7443
     3.7800   3.8515   3.8802   3.9194   3.9253   3.9543   4.1117   4.1749
     4.2894   4.4733   4.7249   4.8069   4.8166   4.8963   4.9423   5.0920
     5.1654   5.2315   5.2720   5.3278   5.3722   5.4349   5.4956   5.6261
     5.7808   5.8293   5.8817   5.9518   6.0372   6.1238   6.2163   6.2590
     6.2864   6.3459   6.4163   6.4504   6.5043   6.5784   6.6510   6.7164
     6.7307   6.8247   6.8516   6.9846   7.0557   7.4108   7.4358   7.5755
     7.7460   7.9430   8.0711   8.3793   8.5723   8.6067   8.7330   9.0037
     9.2178   9.3221   9.4527

     the Fermi energy is     0.9970 ev

!    total energy              =   -3021.41844456 Ry
     Harris-Foulkes estimate   =   -3021.41844455 Ry
     estimated scf accuracy    <       0.00000012 Ry

     The total energy is the sum of the following terms:

     one-electron contribution =  -41241.37875811 Ry
     hartree contribution      =   20694.93517988 Ry
     xc contribution           =    -553.69090948 Ry
     ewald contribution        =   18078.71625432 Ry
     smearing contrib. (-TS)   =      -0.00021118 Ry

     total magnetization       =     0.00 Bohr mag/cell
     absolute magnetization    =     0.00 Bohr mag/cell

     convergence has been achieved in   9 iterations

     Forces acting on atoms (Ry/au):

     negative rho (up, down):  1.209E-02 1.209E-02
     atom    1 type  1   force =     0.00001829   -0.00035721   -0.13379637
     atom    2 type  2   force =     0.00000711    0.00002624    0.07212824
     atom    3 type  1   force =    -0.00135505    0.00030715   -0.06096828
     atom    4 type  2   force =     0.00290404    0.00048752    0.00638437
     atom    5 type  1   force =     0.00027576    0.00184982    0.00352692
     atom    6 type  2   force =     0.00006219   -0.00002783   -0.00286809
     atom    7 type  1   force =    -0.00034280   -0.00085303    0.00451293
     atom    8 type  2   force =     0.00098846   -0.00020173   -0.00064563
     atom    9 type  1   force =    -0.00002743    0.00001911   -0.13355365
     atom   10 type  2   force =    -0.00006481    0.00006571    0.07131151
     atom   11 type  1   force =    -0.00131645   -0.00023825   -0.05588420
     atom   12 type  2   force =     0.00299618   -0.00006807    0.00610040
     atom   13 type  1   force =     0.00029369   -0.00147474    0.00347081
     atom   14 type  2   force =    -0.00119566   -0.00039355   -0.00289802
     atom   15 type  1   force =    -0.00055051    0.00026940    0.00447885
     atom   16 type  2   force =     0.00052490   -0.00017566   -0.00009305
     atom   17 type  2   force =    -0.00006842   -0.00007353    0.07939512
     atom   18 type  1   force =     0.00013842   -0.00017316    0.11912130
     atom   19 type  2   force =    -0.00010655   -0.00017434   -0.06668524
     atom   20 type  2   force =    -0.06322302    0.00014946   -0.03224522
     atom   21 type  2   force =     0.06320387    0.00001395   -0.03245144
     atom   22 type  1   force =     0.00072449    0.00107951    0.05974553
     atom   23 type  2   force =    -0.00017274    0.00005404   -0.00175186
     atom   24 type  2   force =    -0.00143284   -0.00000270   -0.02326448
     atom   25 type  2   force =    -0.00313277    0.00058924    0.00787039
     atom   26 type  1   force =     0.00064017    0.00029943    0.00461343
     atom   27 type  2   force =     0.00052667    0.00061286   -0.00382084
     atom   28 type  2   force =     0.00014258   -0.00009560   -0.00120146
     atom   29 type  2   force =     0.00021338   -0.00034302   -0.00059027
     atom   30 type  1   force =     0.00022894   -0.00070784    0.00386106
     atom   31 type  2   force =     0.00006349    0.00015690   -0.00260125
     atom   32 type  2   force =     0.00011252   -0.00025713   -0.00136398
     atom   33 type  2   force =    -0.00011576    0.00003742    0.07899496
     atom   34 type  1   force =     0.00006885   -0.00021991    0.11903636
     atom   35 type  2   force =    -0.00030328   -0.00005225   -0.06638590
     atom   36 type  2   force =    -0.06318139   -0.00005225   -0.03233262
     atom   37 type  2   force =     0.06332959   -0.00020428   -0.03249106
     atom   38 type  1   force =     0.00066321   -0.00098704    0.05996375
     atom   39 type  2   force =    -0.00045246    0.00010148   -0.00249677
     atom   40 type  2   force =    -0.00119006    0.00030438   -0.02217475
     atom   41 type  2   force =    -0.00316748   -0.00014858    0.00789297
     atom   42 type  1   force =     0.00051810    0.00005298    0.00372748
     atom   43 type  2   force =     0.00069346    0.00020998   -0.00298559
     atom   44 type  2   force =     0.00022398    0.00009870   -0.00115485
     atom   45 type  2   force =     0.00019091    0.00031242   -0.00061185
     atom   46 type  1   force =     0.00065007    0.00031666    0.00395342
     atom   47 type  2   force =     0.00005367   -0.00031574   -0.00134000
     atom   48 type  2   force =     0.00003589   -0.00008612   -0.00076157
     atom   49 type  3   force =    -0.00260584    0.06184686   -0.00041274
     atom   50 type  2   force =     0.00114392   -0.00553316   -0.00279636
     atom   51 type  4   force =     0.00030399   -0.00567327    0.00007429
     atom   52 type  4   force =     0.00035224    0.00008328    0.00073242
     atom   53 type  4   force =     0.00569618   -0.02594987    0.01265000
     atom   54 type  4   force =    -0.00398393   -0.02450464   -0.01091910

     Total force =     0.370102     Total SCF correction =     0.001106
 !ASE

     Writing output data file calc.save

     General routines

     Parallel routines

   This run was terminated on:  11:12:19  12Feb2018

   JOB DONE.