     Program PWSCF v.5.1rc2 (svn rev. ) starts on 10Feb2018 at 20:35: 7

     Current dimensions of program PWSCF are:
     Max number of different atomic species (ntypx) = 10
     Max number of k-points (npk) =  40000
     Max angular momentum in pseudopotentials (lmaxx) =  3

     IMPORTANT: XC functional enforced from input :
     Exchange-correlation      = BEEF ( 1  4 27 13 2)
     Any further DFT definition will be discarded
     Please, verify this is what you really want

     Subspace diagonalization in iterative solution of the eigenvalue problem:
     a serial algorithm will be used

     Generating pointlists ...
     new r_m :   0.4125 (alat units)  0.7795 (a.u.) for type    1
     new r_m :   0.4125 (alat units)  0.7795 (a.u.) for type    2

     bravais-lattice index     =            0
     lattice parameter (alat)  =       1.8897  a.u.
     unit-cell volume          =    7990.9933 (a.u.)^3
     number of atoms/cell      =           49
     number of atomic types    =            2
     number of electrons       =       390.00
     number of Kohn-Sham states=          295
     kinetic-energy cutoff     =      40.4243  Ry
     charge density cutoff     =     404.2426  Ry
     convergence threshold     =      7.3E-07
     mixing beta               =       0.1000
     number of iterations used =           10  plain     mixing
     Exchange-correlation      = BEEF ( 1  4 27 13 2)
     nstep                     =           50

     celldm(1)=   1.889726  celldm(2)=   0.000000  celldm(3)=   0.000000
     celldm(4)=   0.000000  celldm(5)=   0.000000  celldm(6)=   0.000000

     crystal axes: (cart. coord. in units of alat)
               a(1) = (   6.590708   0.000000   0.000000 )
               a(2) = (   0.000000   5.950229   0.000000 )
               a(3) = (   0.000000   0.000000  30.195235 )

     reciprocal axes: (cart. coord. in units 2 pi/alat)
               b(1) = (  0.151729  0.000000  0.000000 )
               b(2) = (  0.000000  0.168061  0.000000 )
               b(3) = (  0.000000  0.000000  0.033118 )

     PseudoPot. # 1 for Ti read from file:
     /home/alatimer/bin/psp/esp_psp_w_gbrvRu/Ti.UPF
     MD5 check sum: 8e4df49b7f0d34bbd5052bf3f5ea0213
     Pseudo is Ultrasoft, Zval = 12.0
     Generated by new atomic code, or converted to UPF format
     Using radial grid of  851 points,  6 beta functions with:
                l(1) =   0
                l(2) =   0
                l(3) =   1
                l(4) =   1
                l(5) =   2
                l(6) =   2
     Q(r) pseudized with  8 coefficients,  rinner =    1.000   1.000   1.000
                                                       1.000   1.000

     PseudoPot. # 2 for  O read from file:
     /home/alatimer/bin/psp/esp_psp_w_gbrvRu/O.UPF
     MD5 check sum: e057bbcf3229fb5d8c36c0c92f9568b4
     Pseudo is Ultrasoft + core correction, Zval =  6.0
     Generated using "atomic" code by A. Dal Corso  v.5.0.2 svn rev. 9415
     Using radial grid of 1095 points,  4 beta functions with:
                l(1) =   0
                l(2) =   0
                l(3) =   1
                l(4) =   1
     Q(r) pseudized with 0 coefficients

     vdW kernel table read from file vdW_kernel_table
     MD5 check sum: 095c7af220d748ca6e76c0b4c6cfb241

     atomic species   valence    mass     pseudopotential
        Ti1           12.00    47.88000     Ti( 1.00)
        O1             6.00    15.99940      O( 1.00)

     Starting magnetic structure
     atomic species   magnetization
        Ti1          0.250
        O1           0.500

     No symmetry found

   Cartesian axes

     site n.     atom                  positions (alat units)
         1           Ti1 tau(   1) = (   1.6476770   0.7437786   2.6545865  )
         2           O1  tau(   2) = (   1.6476770   2.2313359   3.9361215  )
         3           Ti1 tau(   3) = (   1.6476770   2.2313359   5.9499405  )
         4           O1  tau(   4) = (   0.3661420   0.7437786   5.9499405  )
         5           Ti1 tau(   5) = (   1.5277661   0.7316361   9.1979924  )
         6           O1  tau(   6) = (   1.6632133   2.1793878  10.6093433  )
         7           Ti1 tau(   7) = (   1.6165400   2.1742892  12.4450098  )
         8           O1  tau(   8) = (   0.4211133   0.7189415  12.7146628  )
         9           Ti1 tau(   9) = (   1.6476770   3.7188931   2.6545865  )
        10           O1  tau(  10) = (   1.6476770   5.2064503   3.9361215  )
        11           Ti1 tau(  11) = (   1.6476770   5.2064503   5.9499405  )
        12           O1  tau(  12) = (   0.3661420   3.7188931   5.9499405  )
        13           Ti1 tau(  13) = (   1.5318737   3.7073984   9.2114718  )
        14           O1  tau(  14) = (   1.6603548   5.2054729  10.6082275  )
        15           Ti1 tau(  15) = (   1.6160620   5.2125286  12.4458513  )
        16           O1  tau(  16) = (   0.3672395   3.6890226  12.4512313  )
        17           O1  tau(  17) = (   1.6476770   2.2313359   1.3730516  )
        18           Ti1 tau(  18) = (   4.9430310   2.2313359   2.6545865  )
        19           O1  tau(  19) = (   4.9430310   2.2313359   4.6684056  )
        20           O1  tau(  20) = (   6.2245660   0.7437786   2.6545865  )
        21           O1  tau(  21) = (   3.6614961   0.7437786   2.6545865  )
        22           Ti1 tau(  22) = (   4.9430310   0.7437786   5.9499405  )
        23           O1  tau(  23) = (   1.6494130   2.2266810   8.0229920  )
        24           O1  tau(  24) = (   4.9430310   2.2313359   7.2314755  )
        25           O1  tau(  25) = (   2.9292120   0.7437786   5.9499405  )
        26           Ti1 tau(  26) = (   4.8570045   2.2038353   9.3960648  )
        27           O1  tau(  27) = (   4.9365002   2.1563787  11.2526517  )
        28           O1  tau(  28) = (   6.2661622   0.7265345   9.2570196  )
        29           O1  tau(  29) = (   3.6607207   0.7252434   9.2585875  )
        30           Ti1 tau(  30) = (   4.8804456   0.7009689  12.7500804  )
        31           O1  tau(  31) = (   4.9885443   2.2055297  13.8060867  )
        32           O1  tau(  32) = (   2.8787315   0.7196740  12.7638696  )
        33           O1  tau(  33) = (   1.6476770   5.2064503   1.3730516  )
        34           Ti1 tau(  34) = (   4.9430310   5.2064503   2.6545865  )
        35           O1  tau(  35) = (   4.9430310   5.2064503   4.6684056  )
        36           O1  tau(  36) = (   6.2245660   3.7188931   2.6545865  )
        37           O1  tau(  37) = (   3.6614961   3.7188931   2.6545865  )
        38           Ti1 tau(  38) = (   4.9430310   3.7188931   5.9499405  )
        39           O1  tau(  39) = (   1.6492404   5.1840375   8.0235373  )
        40           O1  tau(  40) = (   4.9430310   5.2064503   7.2314755  )
        41           O1  tau(  41) = (   2.9292120   3.7188931   5.9499405  )
        42           Ti1 tau(  42) = (   4.8583452   5.1875290   9.3946917  )
        43           O1  tau(  43) = (   4.9366536   5.2195535  11.2514306  )
        44           O1  tau(  44) = (   6.2660656   3.7009687   9.2894568  )
        45           O1  tau(  45) = (   3.6605616   3.6984666   9.2954459  )
        46           Ti1 tau(  46) = (   5.1078939   3.6751672  12.7268755  )
        47           O1  tau(  47) = (   4.9880347   5.1576104  13.8055399  )
        48           O1  tau(  48) = (   3.0285069   3.6936269  12.4216869  )
        49           O1  tau(  49) = (   2.3858682   3.7294311  13.7464468  )

     number of k points=    40  Fermi-Dirac smearing, width (Ry)=  0.0073
                       cart. coord. in units 2pi/alat
        k(    1) = (   0.0000000   0.0000000   0.0000000), wk =   0.0277778
        k(    2) = (   0.0000000   0.0280101   0.0000000), wk =   0.0555556
        k(    3) = (   0.0000000   0.0560203   0.0000000), wk =   0.0555556
        k(    4) = (   0.0000000  -0.0840304   0.0000000), wk =   0.0277778
        k(    5) = (   0.0252881   0.0000000   0.0000000), wk =   0.0555556
        k(    6) = (   0.0252881   0.0280101   0.0000000), wk =   0.0555556
        k(    7) = (   0.0252881   0.0560203   0.0000000), wk =   0.0555556
        k(    8) = (   0.0252881  -0.0840304   0.0000000), wk =   0.0555556
        k(    9) = (   0.0505763   0.0000000   0.0000000), wk =   0.0555556
        k(   10) = (   0.0505763   0.0280101   0.0000000), wk =   0.0555556
        k(   11) = (   0.0505763   0.0560203   0.0000000), wk =   0.0555556
        k(   12) = (   0.0505763  -0.0840304   0.0000000), wk =   0.0555556
        k(   13) = (  -0.0758644   0.0000000   0.0000000), wk =   0.0277778
        k(   14) = (  -0.0758644   0.0280101   0.0000000), wk =   0.0555556
        k(   15) = (  -0.0758644   0.0560203   0.0000000), wk =   0.0555556
        k(   16) = (  -0.0758644  -0.0840304   0.0000000), wk =   0.0277778
        k(   17) = (  -0.0252881   0.0280101   0.0000000), wk =   0.0555556
        k(   18) = (  -0.0252881   0.0560203   0.0000000), wk =   0.0555556
        k(   19) = (  -0.0505763   0.0280101   0.0000000), wk =   0.0555556
        k(   20) = (  -0.0505763   0.0560203   0.0000000), wk =   0.0555556
        k(   21) = (   0.0000000   0.0000000   0.0000000), wk =   0.0277778
        k(   22) = (   0.0000000   0.0280101   0.0000000), wk =   0.0555556
        k(   23) = (   0.0000000   0.0560203   0.0000000), wk =   0.0555556
        k(   24) = (   0.0000000  -0.0840304   0.0000000), wk =   0.0277778
        k(   25) = (   0.0252881   0.0000000   0.0000000), wk =   0.0555556
        k(   26) = (   0.0252881   0.0280101   0.0000000), wk =   0.0555556
        k(   27) = (   0.0252881   0.0560203   0.0000000), wk =   0.0555556
        k(   28) = (   0.0252881  -0.0840304   0.0000000), wk =   0.0555556
        k(   29) = (   0.0505763   0.0000000   0.0000000), wk =   0.0555556
        k(   30) = (   0.0505763   0.0280101   0.0000000), wk =   0.0555556
        k(   31) = (   0.0505763   0.0560203   0.0000000), wk =   0.0555556
        k(   32) = (   0.0505763  -0.0840304   0.0000000), wk =   0.0555556
        k(   33) = (  -0.0758644   0.0000000   0.0000000), wk =   0.0277778
        k(   34) = (  -0.0758644   0.0280101   0.0000000), wk =   0.0555556
        k(   35) = (  -0.0758644   0.0560203   0.0000000), wk =   0.0555556
        k(   36) = (  -0.0758644  -0.0840304   0.0000000), wk =   0.0277778
        k(   37) = (  -0.0252881   0.0280101   0.0000000), wk =   0.0555556
        k(   38) = (  -0.0252881   0.0560203   0.0000000), wk =   0.0555556
        k(   39) = (  -0.0505763   0.0280101   0.0000000), wk =   0.0555556
        k(   40) = (  -0.0505763   0.0560203   0.0000000), wk =   0.0555556

     Largest allocated arrays     est. size (Mb)     dimensions
     Largest temporary arrays     est. size (Mb)     dimensions

     Check: negative/imaginary core charge=   -0.000049    0.000000

     The initial density is read from file :
     ./calc.save/charge-density.dat

     negative rho (up, down):  1.430E-02 1.430E-02

     *
     * You are using vdW-DF for exchange-correlation in this calculation.
     * Please cite the following three references that made this development
     * possible:
     *
[...]
     atom:   29    charge:    2.0876    magn:   -0.0001    constr:    0.0000
     atom:   30    charge:    3.1182    magn:    0.0000    constr:    0.0000
     atom:   31    charge:    2.0823    magn:   -0.0001    constr:    0.0000
     atom:   32    charge:    2.0861    magn:   -0.0001    constr:    0.0000
     atom:   33    charge:    2.0622    magn:    0.0006    constr:    0.0000
     atom:   34    charge:    3.1239    magn:   -0.0001    constr:    0.0000
     atom:   35    charge:    2.0878    magn:   -0.0000    constr:    0.0000
     atom:   36    charge:    2.0846    magn:    0.0001    constr:    0.0000
     atom:   37    charge:    2.0846    magn:    0.0001    constr:    0.0000
     atom:   38    charge:    3.1196    magn:    0.0000    constr:    0.0000
     atom:   39    charge:    2.0910    magn:   -0.0001    constr:    0.0000
     atom:   40    charge:    2.0790    magn:   -0.0000    constr:    0.0000
     atom:   41    charge:    2.0869    magn:   -0.0001    constr:    0.0000
     atom:   42    charge:    3.1146    magn:    0.0000    constr:    0.0000
     atom:   43    charge:    2.0820    magn:   -0.0001    constr:    0.0000
     atom:   44    charge:    2.0857    magn:   -0.0001    constr:    0.0000
     atom:   45    charge:    2.0874    magn:   -0.0001    constr:    0.0000
     atom:   46    charge:    3.1240    magn:    0.0001    constr:    0.0000
     atom:   47    charge:    2.0850    magn:   -0.0001    constr:    0.0000
     atom:   48    charge:    2.0689    magn:   -0.0001    constr:    0.0000
     atom:   49    charge:    2.0391    magn:   -0.0001    constr:    0.0000

     total energy              =   -3004.20030155 Ry
     Harris-Foulkes estimate   =   -3004.21720444 Ry
     estimated scf accuracy    <       0.10827565 Ry

     total magnetization       =     0.00 Bohr mag/cell
     absolute magnetization    =     0.01 Bohr mag/cell

[...]

     total energy              =   -3004.17606208 Ry
     Harris-Foulkes estimate   =   -3004.17606168 Ry
     estimated scf accuracy    <       0.00000228 Ry

[...]

     iteration # 10     ecut=    40.42 Ry     beta=0.10
     Davidson diagonalization with overlap
     ethr =  5.84E-10,  avg # of iterations =  2.0

     negative rho (up, down):  1.430E-02 1.430E-02

     Magnetic moment per site:
     atom:    1    charge:    3.1251    magn:   -0.0000    constr:    0.0000
     atom:    2    charge:    2.0894    magn:    0.0000    constr:    0.0000
     atom:    3    charge:    3.1196    magn:   -0.0000    constr:    0.0000
     atom:    4    charge:    2.0871    magn:   -0.0000    constr:    0.0000
     atom:    5    charge:    3.1167    magn:    0.0000    constr:    0.0000
     atom:    6    charge:    2.0890    magn:   -0.0000    constr:    0.0000
     atom:    7    charge:    3.1217    magn:    0.0000    constr:    0.0000
     atom:    8    charge:    2.0874    magn:   -0.0000    constr:    0.0000
     atom:    9    charge:    3.1251    magn:   -0.0000    constr:    0.0000
     atom:   10    charge:    2.0894    magn:    0.0000    constr:    0.0000
     atom:   11    charge:    3.1196    magn:   -0.0000    constr:    0.0000
     atom:   12    charge:    2.0871    magn:   -0.0000    constr:    0.0000
     atom:   13    charge:    3.1147    magn:    0.0000    constr:    0.0000
     atom:   14    charge:    2.0877    magn:   -0.0000    constr:    0.0000
     atom:   15    charge:    3.1178    magn:    0.0000    constr:    0.0000
     atom:   16    charge:    2.1004    magn:   -0.0000    constr:    0.0000
     atom:   17    charge:    2.0622    magn:    0.0001    constr:    0.0000
     atom:   18    charge:    3.1239    magn:   -0.0000    constr:    0.0000
     atom:   19    charge:    2.0878    magn:    0.0000    constr:    0.0000
     atom:   20    charge:    2.0846    magn:    0.0000    constr:    0.0000
     atom:   21    charge:    2.0846    magn:    0.0000    constr:    0.0000
     atom:   22    charge:    3.1196    magn:    0.0000    constr:    0.0000
     atom:   23    charge:    2.0903    magn:   -0.0000    constr:    0.0000
     atom:   24    charge:    2.0789    magn:   -0.0000    constr:    0.0000
     atom:   25    charge:    2.0869    magn:   -0.0000    constr:    0.0000
     atom:   26    charge:    3.1149    magn:    0.0000    constr:    0.0000
     atom:   27    charge:    2.0818    magn:   -0.0000    constr:    0.0000
     atom:   28    charge:    2.0885    magn:   -0.0000    constr:    0.0000
     atom:   29    charge:    2.0876    magn:   -0.0000    constr:    0.0000
     atom:   30    charge:    3.1182    magn:    0.0000    constr:    0.0000
     atom:   31    charge:    2.0832    magn:   -0.0000    constr:    0.0000
     atom:   32    charge:    2.0862    magn:   -0.0000    constr:    0.0000
     atom:   33    charge:    2.0622    magn:    0.0001    constr:    0.0000
     atom:   34    charge:    3.1239    magn:   -0.0000    constr:    0.0000
     atom:   35    charge:    2.0877    magn:    0.0000    constr:    0.0000
     atom:   36    charge:    2.0846    magn:    0.0000    constr:    0.0000
     atom:   37    charge:    2.0846    magn:    0.0000    constr:    0.0000
     atom:   38    charge:    3.1196    magn:    0.0000    constr:    0.0000
     atom:   39    charge:    2.0910    magn:   -0.0000    constr:    0.0000
     atom:   40    charge:    2.0790    magn:   -0.0000    constr:    0.0000
     atom:   41    charge:    2.0869    magn:   -0.0000    constr:    0.0000
     atom:   42    charge:    3.1146    magn:    0.0000    constr:    0.0000
     atom:   43    charge:    2.0818    magn:   -0.0000    constr:    0.0000
     atom:   44    charge:    2.0857    magn:   -0.0000    constr:    0.0000
     atom:   45    charge:    2.0874    magn:   -0.0000    constr:    0.0000
     atom:   46    charge:    3.1241    magn:    0.0000    constr:    0.0000
     atom:   47    charge:    2.0842    magn:   -0.0000    constr:    0.0000
     atom:   48    charge:    2.0693    magn:   -0.0000    constr:    0.0000
     atom:   49    charge:    2.0441    magn:   -0.0000    constr:    0.0000

     End of self-consistent calculation

 ------ SPIN UP ------------

          k = 0.0000 0.0000 0.0000 ( 34665 PWs)   bands (ev):

   -58.2566 -58.2216 -58.0990 -58.0506 -57.9291 -57.8808 -57.7087 -57.6733
   -57.6525 -57.6173 -57.5775 -57.5413 -57.3927 -57.2316 -56.7033 -56.6680
   -34.6919 -34.6639 -34.5388 -34.5104 -34.4752 -34.4573 -34.4046 -34.3631
   -34.3626 -34.3084 -34.3022 -34.2887 -34.2170 -34.2040 -34.1974 -34.1458
   -34.1453 -34.1099 -34.1017 -34.0888 -34.0655 -33.9940 -33.9040 -33.8868
   -33.8706 -33.8607 -33.8581 -33.8404 -33.8253 -33.8215 -33.8109 -33.8087
   -33.7752 -33.7658 -33.7534 -33.7356 -33.7078 -33.6967 -33.6327 -33.6115
   -33.4624 -33.3931 -33.1217 -33.0555 -33.0294 -32.9260 -32.8342 -32.7256
   -22.5341 -18.6045 -18.4162 -18.3118 -18.0867 -17.9416 -17.8944 -17.8278
   -17.6575 -17.6198 -17.5494 -17.5247 -17.5099 -17.4631 -17.4378 -17.4034
   -17.3696 -17.3013 -17.2625 -17.1648 -17.1300 -17.0112 -17.0104 -16.9743
   -16.8615 -16.7732 -16.7501 -16.7294 -16.5963 -16.5684 -15.7231 -15.2826
   -15.1974  -6.9463  -6.5280  -6.2811  -5.9755  -5.9321  -5.7918  -5.7286
    -5.4655  -5.4178  -5.3749  -5.0910  -5.0423  -4.9999  -4.9764  -4.8913
    -4.8617  -4.7924  -4.7267  -4.6627  -4.6568  -4.6387  -4.5823  -4.5732
    -4.5299  -4.5151  -4.4999  -4.4337  -4.3462  -4.2992  -4.2474  -4.1956
    -4.1692  -4.1053  -4.0940  -4.0654  -4.0414  -3.9668  -3.9603  -3.9397
    -3.8471  -3.6498  -3.6021  -3.5479  -3.4699  -3.4418  -3.4330  -3.2909
    -3.1972  -3.1834  -3.1654  -3.1475  -3.0056  -2.9755  -2.9405  -2.9259
    -2.8645  -2.8266  -2.7926  -2.7699  -2.7620  -2.6918  -2.6766  -2.6066
    -2.5378  -2.4866  -2.4055  -2.3362  -2.2130  -2.1411  -2.1390  -2.0731
    -2.0558  -1.9975  -1.9295  -1.9009  -1.8872  -1.8815  -1.8282  -1.7784
    -1.7535  -1.7130  -1.6592  -1.6303  -1.6148  -1.5575  -1.5262  -1.3736
    -1.2506  -1.1988  -1.1594  -1.1400  -1.0423  -0.7825  -0.6519  -0.6382
    -0.4266  -0.3004  -0.2866   1.0859   1.1122   1.1907   1.3911   1.4454
     1.4520   1.5355   1.6217   1.6632   1.7820   1.8736   1.8874   1.9430
     1.9606   1.9751   2.0036   2.0648   2.0928   2.1029   2.1468   2.1576
     2.2443   2.2613   2.2980   2.3133   2.5050   2.5116   2.5506   2.5623
     2.5631   2.6170   2.6286   2.6402   2.6718   2.7074   2.7626   2.8416
     2.8450   2.8773   2.9086   2.9721   3.0529   3.0554   3.1548   3.3965
     3.5209   3.5266   3.6246   3.6617   3.6790   3.8325   3.8855   4.0373
     4.0871   4.2150   4.4952   4.5137   4.6176   4.6596   4.7745   4.9173
     4.9359   5.0169   5.1341   5.1882   5.2028   5.2436   5.2666   5.2735
     5.3216   5.3951   5.4924   5.5489   5.5901   5.6417   5.6794   5.7825
     5.9014   5.9850   6.0295   6.3625   6.4108   6.4643   6.5610   6.7457
     7.1844   7.8092   7.9764   8.3161   8.5678   8.5938   8.8162   8.8622
     8.9295   9.1861   9.2278   9.3152   9.3471   9.5748   9.6698

[...]

          k =-0.0759 0.0000 0.0000 ( 34758 PWs)   bands (ev):

[...]

 ------ SPIN DOWN ----------

[...]

          k = 0.0506-0.0840 0.0000 ( 34628 PWs)   bands (ev):

[...]

          k =-0.0506 0.0560 0.0000 ( 34596 PWs)   bands (ev):

   -58.2480 -58.2305 -58.0929 -58.0567 -57.9234 -57.8864 -57.6998 -57.6821
   -57.6439 -57.6261 -57.5691 -57.5497 -57.3910 -57.2333 -56.6947 -56.6770
   -34.5977 -34.5651 -34.5316 -34.5173 -34.4325 -34.4025 -34.3887 -34.3865
   -34.3766 -34.3535 -34.3373 -34.3199 -34.2893 -34.1955 -34.1527 -34.1333
   -34.1283 -34.1095 -34.1068 -34.0517 -33.9929 -33.9500 -33.9157 -33.8965
   -33.8821 -33.8786 -33.8671 -33.8549 -33.8390 -33.8329 -33.8320 -33.8223
   -33.7991 -33.7859 -33.7737 -33.7646 -33.7360 -33.6969 -33.6301 -33.6112
   -33.4951 -33.4630 -33.0510 -33.0355 -33.0252 -32.9035 -32.8576 -32.8273
   -22.5110 -18.3125 -18.1217 -18.0511 -17.9429 -17.8291 -17.8187 -17.7793
   -17.7448 -17.7292 -17.6937 -17.6191 -17.6049 -17.5029 -17.4466 -17.4192
   -17.4174 -17.3572 -17.2638 -17.2357 -17.1782 -17.1444 -17.1028 -16.9546
   -16.8409 -16.8113 -16.7822 -16.7476 -16.7349 -16.6675 -15.7059 -15.3075
   -15.2710  -6.6652  -6.3649  -6.2353  -5.5945  -5.2602  -5.2178  -5.1853
    -5.1342  -5.1104  -5.0868  -5.0504  -5.0319  -4.9633  -4.8990  -4.8712
    -4.8632  -4.7872  -4.7692  -4.7138  -4.7064  -4.6697  -4.6512  -4.6229
    -4.5986  -4.5890  -4.5315  -4.4810  -4.4640  -4.4107  -4.3412  -4.2701
    -4.2170  -4.1873  -4.0986  -4.0169  -3.9519  -3.9138  -3.8464  -3.8144
    -3.6825  -3.6204  -3.5635  -3.5061  -3.4864  -3.4471  -3.3844  -3.3575
    -3.2971  -3.2643  -3.2316  -3.1904  -3.1153  -3.0892  -3.0504  -3.0012
    -2.9465  -2.9191  -2.8986  -2.8652  -2.8425  -2.7849  -2.7488  -2.7374
    -2.6964  -2.6766  -2.5743  -2.5340  -2.5163  -2.4718  -2.4401  -2.3741
    -2.3154  -2.2515  -2.1838  -2.0975  -2.0418  -1.9946  -1.9588  -1.8912
    -1.8770  -1.8188  -1.7497  -1.6668  -1.6270  -1.5620  -1.5305  -1.4716
    -1.3769  -1.3510  -1.2840  -1.2362  -1.2231  -1.0567  -0.9111  -0.4707
    -0.4347  -0.4182  -0.3606   1.3025   1.4281   1.5196   1.5222   1.6290
     1.6539   1.6917   1.7041   1.7580   1.8294   1.8497   1.9393   1.9799
     2.0010   2.0279   2.0425   2.0739   2.1406   2.1613   2.2118   2.2457
     2.2627   2.3458   2.4116   2.4375   2.4446   2.4799   2.5439   2.5666
     2.6945   2.7227   2.7700   2.7828   2.8480   2.8628   2.8991   2.9277
     2.9911   3.0583   3.0825   3.1799   3.2156   3.2622   3.3172   3.3519
     3.3670   3.3844   3.5523   3.5991   3.7119   3.7337   3.8498   3.9016
     4.1177   4.2413   4.2538   4.3061   4.4504   4.4776   4.5724   4.6760
     4.7148   4.7716   4.8759   5.0103   5.1489   5.2184   5.2792   5.3562
     5.4822   5.5261   5.6284   5.7599   5.7879   5.7950   5.8482   5.9954
     6.0736   6.0960   6.1717   6.2696   6.3476   6.4333   6.7615   6.9564
     7.1738   7.4495   7.6224   7.7312   8.0433   8.1042   8.1881   8.5312
     8.7109   8.7925   8.9080   9.0769   9.0926   9.4033   9.4762

     the Fermi energy is     0.4341 ev

!    total energy              =   -3004.17606629 Ry
     Harris-Foulkes estimate   =   -3004.17606228 Ry
     estimated scf accuracy    <       0.00000023 Ry

     The total energy is the sum of the following terms:

     one-electron contribution =  -42058.97757952 Ry
     hartree contribution      =   21091.87222125 Ry
     xc contribution           =    -546.24208049 Ry
     ewald contribution        =   18509.17161167 Ry
     smearing contrib. (-TS)   =      -0.00023920 Ry

     total magnetization       =     0.00 Bohr mag/cell
     absolute magnetization    =     0.00 Bohr mag/cell

     convergence has been achieved in  10 iterations

     Forces acting on atoms (Ry/au):

     negative rho (up, down):  1.430E-02 1.430E-02
     atom    1 type  1   force =    -0.00015255    0.00030492   -0.13693394
     atom    2 type  2   force =     0.00005588   -0.00007822    0.07534371
     atom    3 type  1   force =     0.00070912    0.00085405   -0.05920766
     atom    4 type  2   force =     0.00465151   -0.00028973    0.00931830
     atom    5 type  1   force =     0.00003622   -0.00073387    0.00013154
     atom    6 type  2   force =    -0.00005684    0.00011786    0.00012574
     atom    7 type  1   force =     0.00040154    0.00134484    0.00002073
     atom    8 type  2   force =    -0.00068145    0.00103949   -0.00015244
     atom    9 type  1   force =    -0.00006582    0.00041093   -0.13695785
     atom   10 type  2   force =     0.00014755   -0.00022821    0.07532979
     atom   11 type  1   force =     0.00073906   -0.00085977   -0.05940770
     atom   12 type  2   force =     0.00432036   -0.00007409    0.00813828
     atom   13 type  1   force =    -0.00054689    0.00037018    0.00016489
     atom   14 type  2   force =    -0.00014358   -0.00039577   -0.00205159
     atom   15 type  1   force =     0.00002359    0.00231562    0.00072848
     atom   16 type  2   force =    -0.00011821   -0.00066307   -0.00049949
     atom   17 type  2   force =     0.00024226   -0.00005381    0.08102328
     atom   18 type  1   force =    -0.00020091    0.00033792    0.11718249
     atom   19 type  2   force =     0.00024829    0.00015815   -0.06538164
     atom   20 type  2   force =    -0.06320182    0.00000119   -0.03167743
     atom   21 type  2   force =     0.06298100    0.00017315   -0.03164927
     atom   22 type  1   force =    -0.00062480    0.00002529    0.05924859
     atom   23 type  2   force =    -0.00013594    0.00026312   -0.00018792
     atom   24 type  2   force =     0.00059280   -0.00017003   -0.02268771
     atom   25 type  2   force =    -0.00451835   -0.00026697    0.00819473
     atom   26 type  1   force =     0.00005119    0.00046487    0.00006934
     atom   27 type  2   force =    -0.00011386    0.00003131   -0.00039720
     atom   28 type  2   force =    -0.00124611    0.00003375   -0.00016526
     atom   29 type  2   force =     0.00029340   -0.00013861   -0.00009433
     atom   30 type  1   force =     0.00009141    0.00040961    0.00106488
     atom   31 type  2   force =    -0.00031256   -0.00023802   -0.00002353
     atom   32 type  2   force =     0.00006553    0.00129479   -0.00022594
     atom   33 type  2   force =     0.00019739    0.00010016    0.08100568
     atom   34 type  1   force =    -0.00021924    0.00027799    0.11710773
     atom   35 type  2   force =     0.00029895    0.00022002   -0.06548665
     atom   36 type  2   force =    -0.06307105    0.00018134   -0.03187946
     atom   37 type  2   force =     0.06314610    0.00021884   -0.03157619
     atom   38 type  1   force =    -0.00049468   -0.00024646    0.05895159
     atom   39 type  2   force =     0.00007257   -0.00053245   -0.00078291
     atom   40 type  2   force =     0.00041336   -0.00218589   -0.02226108
     atom   41 type  2   force =    -0.00416973   -0.00022748    0.00763541
     atom   42 type  1   force =    -0.00032404   -0.00044052    0.00020925
     atom   43 type  2   force =     0.00019710    0.00030562   -0.00029543
     atom   44 type  2   force =     0.00025573    0.00018174   -0.00001757
     atom   45 type  2   force =    -0.00017060   -0.00020640   -0.00022491
     atom   46 type  1   force =    -0.00144407    0.00043877    0.00067795
     atom   47 type  2   force =     0.00029799    0.00059631   -0.00062394
     atom   48 type  2   force =     0.00077211    0.00043354    0.00051152
     atom   49 type  2   force =     0.00071111   -0.00487600   -0.00133486

     Total force =     0.365227     Total SCF correction =     0.001287
 !ASE

     Writing output data file calc.save

     General routines

     Parallel routines

   This run was terminated on:  21:19:35  10Feb2018

   JOB DONE.