     Program PWSCF v.5.1rc2 (svn rev. ) starts on 11Feb2018 at  2:13:18

     Current dimensions of program PWSCF are:
     Max number of different atomic species (ntypx) = 10
     Max number of k-points (npk) =  40000
     Max angular momentum in pseudopotentials (lmaxx) =  3

     IMPORTANT: XC functional enforced from input :
     Exchange-correlation      = BEEF ( 1  4 27 13 2)
     Any further DFT definition will be discarded
     Please, verify this is what you really want

     Subspace diagonalization in iterative solution of the eigenvalue problem:
     a serial algorithm will be used

     Generating pointlists ...
     new r_m :   0.4125 (alat units)  0.7795 (a.u.) for type    1
     new r_m :   0.4057 (alat units)  0.7667 (a.u.) for type    2
     new r_m :   0.4057 (alat units)  0.7667 (a.u.) for type    3

     bravais-lattice index     =            0
     lattice parameter (alat)  =       1.8897  a.u.
     unit-cell volume          =    7990.9933 (a.u.)^3
     number of atoms/cell      =           50
     number of atomic types    =            3
     number of electrons       =       391.00
     number of Kohn-Sham states=          295
     kinetic-energy cutoff     =      40.4243  Ry
     charge density cutoff     =     404.2426  Ry
     convergence threshold     =      7.3E-07
     mixing beta               =       0.1000
     number of iterations used =           10  plain     mixing
     Exchange-correlation      = BEEF ( 1  4 27 13 2)
     nstep                     =           50

     celldm(1)=   1.889726  celldm(2)=   0.000000  celldm(3)=   0.000000
     celldm(4)=   0.000000  celldm(5)=   0.000000  celldm(6)=   0.000000

     crystal axes: (cart. coord. in units of alat)
               a(1) = (   6.590708   0.000000   0.000000 )
               a(2) = (   0.000000   5.950229   0.000000 )
               a(3) = (   0.000000   0.000000  30.195235 )

     reciprocal axes: (cart. coord. in units 2 pi/alat)
               b(1) = (  0.151729  0.000000  0.000000 )
               b(2) = (  0.000000  0.168061  0.000000 )
               b(3) = (  0.000000  0.000000  0.033118 )

     PseudoPot. # 1 for Ti read from file:
     /home/alatimer/bin/psp/esp_psp_w_gbrvRu/Ti.UPF
     MD5 check sum: 8e4df49b7f0d34bbd5052bf3f5ea0213
     Pseudo is Ultrasoft, Zval = 12.0
     Generated by new atomic code, or converted to UPF format
     Using radial grid of  851 points,  6 beta functions with:
                l(1) =   0
                l(2) =   0
                l(3) =   1
                l(4) =   1
                l(5) =   2
                l(6) =   2
     Q(r) pseudized with  8 coefficients,  rinner =    1.000   1.000   1.000
                                                       1.000   1.000

     PseudoPot. # 2 for  O read from file:
     /home/alatimer/bin/psp/esp_psp_w_gbrvRu/O.UPF
     MD5 check sum: e057bbcf3229fb5d8c36c0c92f9568b4
     Pseudo is Ultrasoft + core correction, Zval =  6.0
     Generated using "atomic" code by A. Dal Corso  v.5.0.2 svn rev. 9415
     Using radial grid of 1095 points,  4 beta functions with:
                l(1) =   0
                l(2) =   0
                l(3) =   1
                l(4) =   1
     Q(r) pseudized with 0 coefficients

     PseudoPot. # 3 for  H read from file:
     /home/alatimer/bin/psp/esp_psp_w_gbrvRu/H.UPF
     MD5 check sum: bd57da0722753ddfd9833a65b40bb853
     Pseudo is Ultrasoft, Zval =  1.0
     Generated using "atomic" code by A. Dal Corso  v.5.0.2 svn rev. 9415
     Using radial grid of  929 points,  2 beta functions with:
                l(1) =   0
                l(2) =   0
     Q(r) pseudized with 0 coefficients

     vdW kernel table read from file vdW_kernel_table
     MD5 check sum: 095c7af220d748ca6e76c0b4c6cfb241

     atomic species   valence    mass     pseudopotential
        Ti1           12.00    47.88000     Ti( 1.00)
        O1             6.00    15.99940      O( 1.00)
        H1             1.00     1.00794      H( 1.00)

     Starting magnetic structure
     atomic species   magnetization
        Ti1          0.250
        O1           0.500
        H1           0.000

      2 Sym. Ops. (no inversion) found ( 1 have fractional translation)

   Cartesian axes

     site n.     atom                  positions (alat units)
         1           Ti1 tau(   1) = (   1.6476770   0.7437786   2.6545865  )
         2           O1  tau(   2) = (   1.6476770   2.2313359   3.9361215  )
         3           Ti1 tau(   3) = (   1.6476770   2.2313359   5.9499405  )
         4           O1  tau(   4) = (   0.3661420   0.7437786   5.9499405  )
         5           Ti1 tau(   5) = (   1.6423058   0.7993178   9.2289010  )
         6           O1  tau(   6) = (   1.6406404   2.2313359  10.4535548  )
         7           Ti1 tau(   7) = (   1.6373334   2.2313359  13.0586656  )
         8           O1  tau(   8) = (   0.3716334   0.7231912  12.7369480  )
         9           Ti1 tau(   9) = (   1.6476770   3.7188931   2.6545865  )
        10           O1  tau(  10) = (   1.6476770   5.2064503   3.9361215  )
        11           Ti1 tau(  11) = (   1.6476770   5.2064503   5.9499405  )
        12           O1  tau(  12) = (   0.3661420   3.7188931   5.9499405  )
        13           Ti1 tau(  13) = (   1.6423059   3.6633529   9.2289023  )
        14           O1  tau(  14) = (   1.6396028   5.2064504  10.5374954  )
        15           Ti1 tau(  15) = (   1.6366369   5.2064504  12.3426698  )
        16           O1  tau(  16) = (   0.3716333   3.7394800  12.7369475  )
        17           O1  tau(  17) = (   1.6476770   2.2313359   1.3730516  )
        18           Ti1 tau(  18) = (   4.9430310   2.2313359   2.6545865  )
        19           O1  tau(  19) = (   4.9430310   2.2313359   4.6684056  )
        20           O1  tau(  20) = (   6.2245660   0.7437786   2.6545865  )
        21           O1  tau(  21) = (   3.6614961   0.7437786   2.6545865  )
        22           Ti1 tau(  22) = (   4.9430310   0.7437786   5.9499405  )
        23           O1  tau(  23) = (   1.6444126   2.2313359   7.9291264  )
        24           O1  tau(  24) = (   4.9430310   2.2313359   7.2314755  )
        25           O1  tau(  25) = (   2.9292120   0.7437786   5.9499405  )
        26           Ti1 tau(  26) = (   4.9374203   2.2313360   9.4425711  )
        27           O1  tau(  27) = (   4.9384755   2.2313359  11.2756104  )
        28           O1  tau(  28) = (   6.2333856   0.7395591   9.2701299  )
        29           O1  tau(  29) = (   3.6424277   0.7403199   9.2676498  )
        30           Ti1 tau(  30) = (   4.9388558   0.7382018  12.7898683  )
        31           O1  tau(  31) = (   4.8884434   2.2313358  13.8602379  )
        32           O1  tau(  32) = (   2.8718067   0.7224686  12.6922084  )
        33           O1  tau(  33) = (   1.6476770   5.2064503   1.3730516  )
        34           Ti1 tau(  34) = (   4.9430310   5.2064503   2.6545865  )
        35           O1  tau(  35) = (   4.9430310   5.2064503   4.6684056  )
        36           O1  tau(  36) = (   6.2245660   3.7188931   2.6545865  )
        37           O1  tau(  37) = (   3.6614961   3.7188931   2.6545865  )
        38           Ti1 tau(  38) = (   4.9430310   3.7188931   5.9499405  )
        39           O1  tau(  39) = (   1.6444418   5.2064506   7.9393866  )
        40           O1  tau(  40) = (   4.9430310   5.2064503   7.2314755  )
        41           O1  tau(  41) = (   2.9292120   3.7188931   5.9499405  )
        42           Ti1 tau(  42) = (   4.9387790   5.2064503   9.4241858  )
        43           O1  tau(  43) = (   4.9379278   5.2064504  11.2756977  )
        44           O1  tau(  44) = (   6.2333855   3.7231127   9.2701299  )
        45           O1  tau(  45) = (   3.6424278   3.7223520   9.2676499  )
        46           Ti1 tau(  46) = (   4.9388558   3.7244696  12.7898683  )
        47           O1  tau(  47) = (   4.8902929   5.2064502  13.8618696  )
        48           O1  tau(  48) = (   2.8718066   3.7402036  12.6922086  )
        49           O1  tau(  49) = (   1.7618258   2.2313358  14.8494317  )
        50           H1  tau(  50) = (   2.6007197   2.2313366  15.3628018  )

     number of k points=    32  Fermi-Dirac smearing, width (Ry)=  0.0073
                       cart. coord. in units 2pi/alat
        k(    1) = (   0.0000000   0.0000000   0.0000000), wk =   0.0277778
        k(    2) = (   0.0000000   0.0280101   0.0000000), wk =   0.0555556
        k(    3) = (   0.0000000   0.0560203   0.0000000), wk =   0.0555556
        k(    4) = (   0.0000000  -0.0840304   0.0000000), wk =   0.0277778
        k(    5) = (   0.0252881   0.0000000   0.0000000), wk =   0.0555556
        k(    6) = (   0.0252881   0.0280101   0.0000000), wk =   0.1111111
        k(    7) = (   0.0252881   0.0560203   0.0000000), wk =   0.1111111
        k(    8) = (   0.0252881  -0.0840304   0.0000000), wk =   0.0555556
        k(    9) = (   0.0505763   0.0000000   0.0000000), wk =   0.0555556
        k(   10) = (   0.0505763   0.0280101   0.0000000), wk =   0.1111111
        k(   11) = (   0.0505763   0.0560203   0.0000000), wk =   0.1111111
        k(   12) = (   0.0505763  -0.0840304   0.0000000), wk =   0.0555556
        k(   13) = (  -0.0758644   0.0000000   0.0000000), wk =   0.0277778
        k(   14) = (  -0.0758644   0.0280101   0.0000000), wk =   0.0555556
        k(   15) = (  -0.0758644   0.0560203   0.0000000), wk =   0.0555556
        k(   16) = (  -0.0758644  -0.0840304   0.0000000), wk =   0.0277778
        k(   17) = (   0.0000000   0.0000000   0.0000000), wk =   0.0277778
        k(   18) = (   0.0000000   0.0280101   0.0000000), wk =   0.0555556
        k(   19) = (   0.0000000   0.0560203   0.0000000), wk =   0.0555556
        k(   20) = (   0.0000000  -0.0840304   0.0000000), wk =   0.0277778
        k(   21) = (   0.0252881   0.0000000   0.0000000), wk =   0.0555556
        k(   22) = (   0.0252881   0.0280101   0.0000000), wk =   0.1111111
        k(   23) = (   0.0252881   0.0560203   0.0000000), wk =   0.1111111
        k(   24) = (   0.0252881  -0.0840304   0.0000000), wk =   0.0555556
        k(   25) = (   0.0505763   0.0000000   0.0000000), wk =   0.0555556
        k(   26) = (   0.0505763   0.0280101   0.0000000), wk =   0.1111111
        k(   27) = (   0.0505763   0.0560203   0.0000000), wk =   0.1111111
        k(   28) = (   0.0505763  -0.0840304   0.0000000), wk =   0.0555556
        k(   29) = (  -0.0758644   0.0000000   0.0000000), wk =   0.0277778
        k(   30) = (  -0.0758644   0.0280101   0.0000000), wk =   0.0555556
        k(   31) = (  -0.0758644   0.0560203   0.0000000), wk =   0.0555556
        k(   32) = (  -0.0758644  -0.0840304   0.0000000), wk =   0.0277778

     Largest allocated arrays     est. size (Mb)     dimensions
     Largest temporary arrays     est. size (Mb)     dimensions

     Check: negative/imaginary core charge=   -0.000049    0.000000

     The initial density is read from file :
     ./calc.save/charge-density.dat

     negative rho (up, down):  1.350E-02 1.350E-02

     *
     * You are using vdW-DF for exchange-correlation in this calculation.
[...]
     atom:   33    charge:    1.9871    magn:    0.0011    constr:    0.0000
     atom:   34    charge:    3.1240    magn:    0.0000    constr:    0.0000
     atom:   35    charge:    2.0102    magn:    0.0000    constr:    0.0000
     atom:   36    charge:    2.0135    magn:    0.0000    constr:    0.0000
     atom:   37    charge:    2.0135    magn:    0.0000    constr:    0.0000
     atom:   38    charge:    3.1199    magn:    0.0000    constr:    0.0000
     atom:   39    charge:    2.0102    magn:   -0.0001    constr:    0.0000
     atom:   40    charge:    2.0019    magn:   -0.0002    constr:    0.0000
     atom:   41    charge:    2.0159    magn:   -0.0000    constr:    0.0000
     atom:   42    charge:    3.1217    magn:    0.0001    constr:    0.0000
     atom:   43    charge:    2.0073    magn:   -0.0003    constr:    0.0000
     atom:   44    charge:    2.0135    magn:   -0.0002    constr:    0.0000
     atom:   45    charge:    2.0116    magn:   -0.0002    constr:    0.0000
     atom:   46    charge:    3.1193    magn:    0.0000    constr:    0.0000
     atom:   47    charge:    2.0109    magn:   -0.0001    constr:    0.0000
     atom:   48    charge:    2.0104    magn:   -0.0001    constr:    0.0000
     atom:   49    charge:    2.0202    magn:    0.0000    constr:    0.0000
     atom:   50    charge:    0.3951    magn:   -0.0000    constr:    0.0000

     total energy              =   -3005.52866722 Ry
     Harris-Foulkes estimate   =   -3005.52976187 Ry
     estimated scf accuracy    <       0.00648076 Ry

     total magnetization       =     0.00 Bohr mag/cell
     absolute magnetization    =     0.01 Bohr mag/cell

     iteration #  2     ecut=    40.42 Ry     beta=0.10
     Davidson diagonalization with overlap
     ethr =  1.66E-06,  avg # of iterations =  6.5

[...]

     total energy              =   -3005.52934852 Ry
     Harris-Foulkes estimate   =   -3005.52934852 Ry
     estimated scf accuracy    <       0.00000124 Ry

[...]

     iteration # 10     ecut=    40.42 Ry     beta=0.10
     Davidson diagonalization with overlap
     ethr =  3.17E-10,  avg # of iterations =  2.0

     negative rho (up, down):  1.349E-02 1.349E-02

     Magnetic moment per site:
     atom:    1    charge:    3.1244    magn:   -0.0001    constr:    0.0000
     atom:    2    charge:    2.0137    magn:    0.0001    constr:    0.0000
     atom:    3    charge:    3.1200    magn:   -0.0000    constr:    0.0000
     atom:    4    charge:    2.0159    magn:    0.0000    constr:    0.0000
     atom:    5    charge:    3.1144    magn:    0.0000    constr:    0.0000
     atom:    6    charge:    2.0059    magn:   -0.0000    constr:    0.0000
     atom:    7    charge:    3.1161    magn:    0.0000    constr:    0.0000
     atom:    8    charge:    2.0097    magn:   -0.0000    constr:    0.0000
     atom:    9    charge:    3.1244    magn:   -0.0001    constr:    0.0000
     atom:   10    charge:    2.0138    magn:    0.0001    constr:    0.0000
     atom:   11    charge:    3.1198    magn:   -0.0000    constr:    0.0000
     atom:   12    charge:    2.0159    magn:    0.0000    constr:    0.0000
     atom:   13    charge:    3.1144    magn:    0.0000    constr:    0.0000
     atom:   14    charge:    2.0211    magn:   -0.0000    constr:    0.0000
     atom:   15    charge:    3.1165    magn:    0.0000    constr:    0.0000
     atom:   16    charge:    2.0097    magn:   -0.0000    constr:    0.0000
     atom:   17    charge:    1.9864    magn:    0.0004    constr:    0.0000
     atom:   18    charge:    3.1239    magn:   -0.0000    constr:    0.0000
     atom:   19    charge:    2.0102    magn:    0.0000    constr:    0.0000
     atom:   20    charge:    2.0135    magn:    0.0000    constr:    0.0000
     atom:   21    charge:    2.0135    magn:    0.0000    constr:    0.0000
     atom:   22    charge:    3.1199    magn:    0.0000    constr:    0.0000
     atom:   23    charge:    2.0201    magn:   -0.0000    constr:    0.0000
     atom:   24    charge:    2.0016    magn:   -0.0000    constr:    0.0000
     atom:   25    charge:    2.0159    magn:    0.0000    constr:    0.0000
     atom:   26    charge:    3.1144    magn:    0.0000    constr:    0.0000
     atom:   27    charge:    2.0076    magn:   -0.0001    constr:    0.0000
     atom:   28    charge:    2.0136    magn:   -0.0001    constr:    0.0000
     atom:   29    charge:    2.0117    magn:   -0.0001    constr:    0.0000
     atom:   30    charge:    3.1193    magn:    0.0000    constr:    0.0000
     atom:   31    charge:    2.0112    magn:   -0.0000    constr:    0.0000
     atom:   32    charge:    2.0105    magn:   -0.0000    constr:    0.0000
     atom:   33    charge:    1.9864    magn:    0.0005    constr:    0.0000
     atom:   34    charge:    3.1239    magn:   -0.0000    constr:    0.0000
     atom:   35    charge:    2.0102    magn:    0.0000    constr:    0.0000
     atom:   36    charge:    2.0135    magn:    0.0000    constr:    0.0000
     atom:   37    charge:    2.0135    magn:    0.0000    constr:    0.0000
     atom:   38    charge:    3.1199    magn:    0.0000    constr:    0.0000
     atom:   39    charge:    2.0102    magn:   -0.0000    constr:    0.0000
     atom:   40    charge:    2.0020    magn:   -0.0000    constr:    0.0000
     atom:   41    charge:    2.0159    magn:    0.0000    constr:    0.0000
     atom:   42    charge:    3.1217    magn:    0.0000    constr:    0.0000
     atom:   43    charge:    2.0075    magn:   -0.0001    constr:    0.0000
     atom:   44    charge:    2.0136    magn:   -0.0001    constr:    0.0000
     atom:   45    charge:    2.0117    magn:   -0.0001    constr:    0.0000
     atom:   46    charge:    3.1193    magn:    0.0000    constr:    0.0000
     atom:   47    charge:    2.0109    magn:   -0.0000    constr:    0.0000
     atom:   48    charge:    2.0105    magn:   -0.0000    constr:    0.0000
     atom:   49    charge:    2.0188    magn:   -0.0000    constr:    0.0000
     atom:   50    charge:    0.3948    magn:   -0.0000    constr:    0.0000

     End of self-consistent calculation

 ------ SPIN UP ------------

          k = 0.0000 0.0000 0.0000 ( 34665 PWs)   bands (ev):

   -58.4987 -58.4637 -57.5877 -57.5582 -57.5520 -57.4755 -57.4628 -57.4232
   -57.3264 -57.2938 -57.2570 -57.2214 -57.1113 -57.0760 -57.0071 -56.9691
   -34.9436 -34.7677 -34.7389 -34.7050 -34.6100 -34.5532 -34.0870 -34.0427
   -34.0052 -33.8616 -33.8407 -33.7825 -33.7613 -33.7551 -33.7458 -33.7368
   -33.7316 -33.7146 -33.6937 -33.6876 -33.6854 -33.6639 -33.6543 -33.6493
   -33.6429 -33.6365 -33.6279 -33.5849 -33.5441 -33.5406 -33.5299 -33.4932
   -33.4896 -33.4825 -33.4522 -33.4389 -33.4266 -33.4261 -33.4067 -33.3780
   -33.3297 -33.2844 -33.2399 -33.2399 -33.2203 -33.1960 -33.1382 -33.0881
   -18.6625 -18.2404 -18.1328 -17.9995 -17.9044 -17.7357 -17.7224 -17.6171
   -17.5844 -17.5611 -17.4499 -17.2535 -17.2115 -17.2049 -17.1412 -17.0426
   -17.0218 -17.0005 -16.9323 -16.8910 -16.8412 -16.8064 -16.8008 -16.7767
   -16.6831 -16.6211 -16.6069 -16.5031 -16.4899 -16.3397 -16.2769 -15.7911
   -15.7307  -6.2406  -5.9470  -5.6858  -5.4896  -5.4078  -5.3059  -5.1801
    -5.1571  -5.0708  -4.9397  -4.8482  -4.7925  -4.7798  -4.7079  -4.6334
    -4.6051  -4.5364  -4.5233  -4.4100  -4.4073  -4.3517  -4.3359  -4.2412
    -4.2167  -4.1625  -4.1002  -4.0874  -4.0810  -4.0687  -3.9866  -3.9706
    -3.9025  -3.8305  -3.8249  -3.7355  -3.7276  -3.7205  -3.6119  -3.6081
    -3.5760  -3.4632  -3.4410  -3.4017  -3.2902  -3.1218  -3.0828  -3.0287
    -2.9664  -2.9508  -2.8883  -2.8745  -2.8705  -2.7595  -2.7442  -2.7284
    -2.6376  -2.5842  -2.4995  -2.4246  -2.4211  -2.3868  -2.3282  -2.2780
    -2.2251  -2.1630  -2.1565  -2.1131  -2.0697  -2.0669  -1.9201  -1.8378
    -1.8208  -1.8162  -1.8065  -1.7031  -1.6143  -1.5577  -1.5475  -1.5117
    -1.5110  -1.4935  -1.4410  -1.3590  -1.3379  -1.3172  -1.3013  -1.2779
    -1.2681  -1.1504  -1.0603  -0.9798  -0.9446  -0.8741  -0.8635  -0.8105
    -0.7437  -0.7073  -0.6574  -0.3643   0.8328   0.9301   1.2231   1.5057
     1.6132   1.6989   1.7288   1.8214   1.8534   1.9297   1.9639   2.0310
     2.0365   2.1817   2.1964   2.2687   2.2940   2.3227   2.4028   2.4266
     2.4748   2.4821   2.5187   2.5318   2.6133   2.6371   2.6821   2.7283
     2.7555   2.7612   2.8084   2.8395   2.8666   2.8863   2.8926   3.0048
     3.0192   3.0446   3.2188   3.2218   3.2483   3.2588   3.3583   3.4174
     3.4509   3.5104   3.6047   3.7555   3.8864   3.9010   4.0880   4.2793
     4.4120   4.4808   4.5142   4.6558   4.7942   4.9347   4.9691   5.0694
     5.1975   5.2113   5.2416   5.2552   5.3304   5.3474   5.3524   5.4681
     5.4890   5.5332   5.7014   5.7189   5.7831   5.8886   5.9146   5.9198
     6.0041   6.0500   6.2353   6.2989   6.3537   6.4053   6.5931   6.6178
     7.1024   7.7734   7.9990   8.0225   8.1955   8.2271   8.5824   8.7203
     8.7897   9.0608   9.1718   9.2213   9.3463   9.4519   9.5960

[...]

          k =-0.0759 0.0000 0.0000 ( 34758 PWs)   bands (ev):

[...]

 ------ SPIN DOWN ----------

[...]

          k = 0.0506-0.0840 0.0000 ( 34628 PWs)   bands (ev):

[...]

          k =-0.0759-0.0840 0.0000 ( 34556 PWs)   bands (ev):

   -58.4821 -58.4804 -57.5697 -57.5697 -57.5545 -57.4795 -57.4516 -57.4342
   -57.3200 -57.3001 -57.2432 -57.2350 -57.0942 -57.0942 -56.9889 -56.9873
   -34.7542 -34.7534 -34.7521 -34.7518 -34.6570 -34.6555 -33.8948 -33.8944
   -33.8889 -33.8746 -33.8365 -33.7943 -33.7943 -33.7826 -33.7668 -33.7638
   -33.7579 -33.7490 -33.7174 -33.6878 -33.6825 -33.6635 -33.6615 -33.6549
   -33.6494 -33.6150 -33.5741 -33.5570 -33.5558 -33.5474 -33.5398 -33.5097
   -33.4741 -33.4713 -33.4668 -33.4558 -33.4406 -33.4406 -33.3393 -33.3388
   -33.3357 -33.3255 -33.2857 -33.2854 -33.2329 -33.2317 -33.2270 -33.2201
   -18.1184 -18.0071 -18.0067 -17.9368 -17.9348 -17.6936 -17.6505 -17.6495
   -17.6475 -17.3776 -17.2498 -17.2414 -17.2390 -17.1489 -17.1420 -17.0879
   -17.0480 -17.0008 -16.9839 -16.9715 -16.9704 -16.9669 -16.9615 -16.7622
   -16.7398 -16.7269 -16.7239 -16.6343 -16.6321 -16.4553 -16.4343 -15.8406
   -15.8405  -5.9354  -5.0774  -5.0676  -4.9990  -4.9969  -4.8651  -4.8649
    -4.8616  -4.8557  -4.6113  -4.6067  -4.6024  -4.5390  -4.4770  -4.4061
    -4.4040  -4.4026  -4.3691  -4.3545  -4.3404  -4.3293  -4.3113  -4.2623
    -4.2587  -4.2301  -4.2286  -4.2124  -4.1025  -4.0477  -3.9856  -3.9653
    -3.9305  -3.8551  -3.8422  -3.8395  -3.7239  -3.6442  -3.6332  -3.6296
    -3.5049  -3.5034  -3.3498  -3.3470  -3.3366  -3.3019  -3.2326  -3.1978
    -3.1314  -3.1064  -3.0481  -3.0380  -3.0057  -2.9914  -2.9713  -2.8922
    -2.8450  -2.7520  -2.7156  -2.6717  -2.6308  -2.6002  -2.5668  -2.5456
    -2.5112  -2.4420  -2.4174  -2.4105  -2.3770  -2.3279  -2.2696  -2.2402
    -2.1263  -2.0564  -2.0427  -2.0317  -1.9135  -1.8473  -1.8314  -1.6859
    -1.6481  -1.6209  -1.6063  -1.5817  -1.3413  -1.2979  -1.2835  -1.2732
    -1.2433  -1.1912  -1.1170  -1.0284  -0.9687  -0.9380  -0.9246  -0.8887
    -0.8657  -0.8298  -0.7626  -0.7491   1.4098   1.4137   1.4254   1.4311
     1.7730   1.7737   1.9015   1.9033   2.0534   2.1108   2.1137   2.1673
     2.2400   2.2691   2.3636   2.4359   2.4438   2.5121   2.5447   2.5984
     2.6080   2.6413   2.7653   2.7679   2.7798   2.7960   2.8134   2.8430
     2.8914   2.9165   2.9585   3.0475   3.0506   3.0536   3.0763   3.0915
     3.1680   3.2017   3.2029   3.2400   3.2658   3.2901   3.3044   3.3071
     3.3707   3.3955   3.5461   3.6215   3.6941   3.6958   3.9490   3.9495
     4.3464   4.4329   4.4589   4.5180   4.6355   4.6641   4.7095   4.7545
     4.9667   4.9842   4.9909   4.9934   5.4785   5.4823   5.5000   5.7118
     5.7408   5.7431   5.8084   5.8244   5.9023   5.9072   5.9489   6.0475
     6.0900   6.0976   6.1769   6.2431   6.3026   6.4005   6.7052   7.1121
     7.4086   7.4220   7.4576   7.5186   7.6976   7.7047   7.8429   7.9228
     8.2611   8.2670   8.4388   8.5732   9.0498   9.0715   9.1812

     the Fermi energy is    -0.4802 ev

!    total energy              =   -3005.52934838 Ry
     Harris-Foulkes estimate   =   -3005.52934859 Ry
     estimated scf accuracy    <       0.00000053 Ry

     The total energy is the sum of the following terms:

     one-electron contribution =  -41013.58766308 Ry
     hartree contribution      =   20572.72122526 Ry
     xc contribution           =    -546.71482373 Ry
     ewald contribution        =   17982.07156686 Ry
     smearing contrib. (-TS)   =      -0.01965369 Ry

     total magnetization       =     0.00 Bohr mag/cell
     absolute magnetization    =     0.01 Bohr mag/cell

     convergence has been achieved in  10 iterations

     Forces acting on atoms (Ry/au):

     negative rho (up, down):  1.349E-02 1.349E-02
     atom    1 type  1   force =     0.00002006   -0.00109925   -0.10416947
     atom    2 type  2   force =     0.00003883    0.00000000    0.03811213
     atom    3 type  1   force =    -0.00011298    0.00000000   -0.02285766
     atom    4 type  2   force =    -0.00614491    0.00312526   -0.00582599
     atom    5 type  1   force =     0.00030399    0.00030003   -0.00088251
     atom    6 type  2   force =    -0.00038041    0.00000000    0.00016819
     atom    7 type  1   force =     0.00216040    0.00000000    0.00090470
     atom    8 type  2   force =     0.00010391    0.00015824   -0.00019442
     atom    9 type  1   force =     0.00002006    0.00109925   -0.10416947
     atom   10 type  2   force =     0.00003272    0.00000000    0.03426321
     atom   11 type  1   force =    -0.00011328    0.00000000    0.01128291
     atom   12 type  2   force =    -0.00614491   -0.00312526   -0.00582599
     atom   13 type  1   force =     0.00030399   -0.00030003   -0.00088251
     atom   14 type  2   force =    -0.00072989    0.00000000   -0.00107352
     atom   15 type  1   force =     0.00055839    0.00000000    0.00118402
     atom   16 type  2   force =     0.00010391   -0.00015824   -0.00019442
     atom   17 type  2   force =     0.00004339    0.00000000    0.06640615
     atom   18 type  1   force =     0.00014254    0.00000000    0.13067847
     atom   19 type  2   force =    -0.00015602    0.00000000   -0.08415112
     atom   20 type  2   force =    -0.05789520    0.00015504   -0.03633708
     atom   21 type  2   force =     0.05804606    0.00016968   -0.03624626
     atom   22 type  1   force =    -0.00003613    0.00086946    0.07796880
     atom   23 type  2   force =    -0.00015788    0.00000000    0.00141104
     atom   24 type  2   force =    -0.00017241    0.00000000   -0.03626559
     atom   25 type  2   force =     0.00593358    0.00308229   -0.00550952
     atom   26 type  1   force =    -0.00036193    0.00000000    0.00026518
     atom   27 type  2   force =     0.00034577    0.00000000    0.00152276
     atom   28 type  2   force =    -0.00016198    0.00034100   -0.00036348
     atom   29 type  2   force =    -0.00035064    0.00015504    0.00008614
     atom   30 type  1   force =    -0.00016512    0.00081981    0.00064201
     atom   31 type  2   force =    -0.00011607    0.00000000   -0.00027363
     atom   32 type  2   force =     0.00034822   -0.00048620   -0.00021047
     atom   33 type  2   force =    -0.00000642    0.00000000    0.06642926
     atom   34 type  1   force =     0.00011582    0.00000000    0.13048798
     atom   35 type  2   force =    -0.00012730    0.00000000   -0.08360839
     atom   36 type  2   force =    -0.05789520   -0.00015504   -0.03633708
     atom   37 type  2   force =     0.05804606   -0.00016968   -0.03624626
     atom   38 type  1   force =    -0.00003613   -0.00086946    0.07796880
     atom   39 type  2   force =    -0.00007202    0.00000000   -0.00019180
     atom   40 type  2   force =     0.00007685    0.00000000   -0.03527543
     atom   41 type  2   force =     0.00593358   -0.00308229   -0.00550952
     atom   42 type  1   force =    -0.00055045    0.00000000    0.00093749
     atom   43 type  2   force =     0.00040901    0.00000000    0.00166820
     atom   44 type  2   force =    -0.00016198   -0.00034100   -0.00036348
     atom   45 type  2   force =    -0.00035064   -0.00015504    0.00008614
     atom   46 type  1   force =    -0.00016512   -0.00081981    0.00064201
     atom   47 type  2   force =     0.00162773    0.00000000    0.00068936
     atom   48 type  2   force =     0.00034822    0.00048620   -0.00021047
     atom   49 type  2   force =     0.02255588    0.00000000    0.01606214
     atom   50 type  3   force =    -0.02505393    0.00000000   -0.01669154

     Total force =     0.342671     Total SCF correction =     0.002683
 !ASE

     Writing output data file calc.save

     General routines

     Parallel routines

   This run was terminated on:   2:55:48  11Feb2018

   JOB DONE.