     Program PWSCF v.5.1rc2 (svn rev. ) starts on 10Feb2018 at 22:10: 8

     Current dimensions of program PWSCF are:
     Max number of different atomic species (ntypx) = 10
     Max number of k-points (npk) =  40000
     Max angular momentum in pseudopotentials (lmaxx) =  3

     IMPORTANT: XC functional enforced from input :
     Exchange-correlation      = BEEF ( 1  4 27 13 2)
     Any further DFT definition will be discarded
     Please, verify this is what you really want

     Subspace diagonalization in iterative solution of the eigenvalue problem:
     a serial algorithm will be used

     Generating pointlists ...
     new r_m :   0.4125 (alat units)  0.7795 (a.u.) for type    1
     new r_m :   0.4125 (alat units)  0.7795 (a.u.) for type    2

     bravais-lattice index     =            0
     lattice parameter (alat)  =       1.8897  a.u.
     unit-cell volume          =    7990.9933 (a.u.)^3
     number of atoms/cell      =           49
     number of atomic types    =            2
     number of electrons       =       390.00
     number of Kohn-Sham states=          295
     kinetic-energy cutoff     =      40.4243  Ry
     charge density cutoff     =     404.2426  Ry
     convergence threshold     =      7.3E-07
     mixing beta               =       0.1000
     number of iterations used =           10  plain     mixing
     Exchange-correlation      = BEEF ( 1  4 27 13 2)
     nstep                     =           50

     celldm(1)=   1.889726  celldm(2)=   0.000000  celldm(3)=   0.000000
     celldm(4)=   0.000000  celldm(5)=   0.000000  celldm(6)=   0.000000

     crystal axes: (cart. coord. in units of alat)
               a(1) = (   6.590708   0.000000   0.000000 )
               a(2) = (   0.000000   5.950229   0.000000 )
               a(3) = (   0.000000   0.000000  30.195235 )

     reciprocal axes: (cart. coord. in units 2 pi/alat)
               b(1) = (  0.151729  0.000000  0.000000 )
               b(2) = (  0.000000  0.168061  0.000000 )
               b(3) = (  0.000000  0.000000  0.033118 )

     PseudoPot. # 1 for Ti read from file:
     /home/alatimer/bin/psp/esp_psp_w_gbrvRu/Ti.UPF
     MD5 check sum: 8e4df49b7f0d34bbd5052bf3f5ea0213
     Pseudo is Ultrasoft, Zval = 12.0
     Generated by new atomic code, or converted to UPF format
     Using radial grid of  851 points,  6 beta functions with:
                l(1) =   0
                l(2) =   0
                l(3) =   1
                l(4) =   1
                l(5) =   2
                l(6) =   2
     Q(r) pseudized with  8 coefficients,  rinner =    1.000   1.000   1.000
                                                       1.000   1.000

     PseudoPot. # 2 for  O read from file:
     /home/alatimer/bin/psp/esp_psp_w_gbrvRu/O.UPF
     MD5 check sum: e057bbcf3229fb5d8c36c0c92f9568b4
     Pseudo is Ultrasoft + core correction, Zval =  6.0
     Generated using "atomic" code by A. Dal Corso  v.5.0.2 svn rev. 9415
     Using radial grid of 1095 points,  4 beta functions with:
                l(1) =   0
                l(2) =   0
                l(3) =   1
                l(4) =   1
     Q(r) pseudized with 0 coefficients

     vdW kernel table read from file vdW_kernel_table
     MD5 check sum: 095c7af220d748ca6e76c0b4c6cfb241

     atomic species   valence    mass     pseudopotential
        Ti1           12.00    47.88000     Ti( 1.00)
        O1             6.00    15.99940      O( 1.00)

     Starting magnetic structure
     atomic species   magnetization
        Ti1          0.250
        O1           0.500

     No symmetry found

   Cartesian axes

     site n.     atom                  positions (alat units)
         1           Ti1 tau(   1) = (   1.6476770   0.7437786   2.6545865  )
         2           O1  tau(   2) = (   1.6476770   2.2313359   3.9361215  )
         3           Ti1 tau(   3) = (   1.6476770   2.2313359   5.9499405  )
         4           O1  tau(   4) = (   0.3661420   0.7437786   5.9499405  )
         5           Ti1 tau(   5) = (   1.5277661   0.7316361   9.1979924  )
         6           O1  tau(   6) = (   1.6632133   2.1793878  10.6093433  )
         7           Ti1 tau(   7) = (   1.6165400   2.1742892  12.4450098  )
         8           O1  tau(   8) = (   0.4211133   0.7189415  12.7146628  )
         9           Ti1 tau(   9) = (   1.6476770   3.7188931   2.6545865  )
        10           O1  tau(  10) = (   1.6476770   5.2064503   3.9361215  )
        11           Ti1 tau(  11) = (   1.6476770   5.2064503   5.9499405  )
        12           O1  tau(  12) = (   0.3661420   3.7188931   5.9499405  )
        13           Ti1 tau(  13) = (   1.5318737   3.7073984   9.2114718  )
        14           O1  tau(  14) = (   1.6603548   5.2054729  10.6082275  )
        15           Ti1 tau(  15) = (   1.6160620   5.2125286  12.4458513  )
        16           O1  tau(  16) = (   0.3672395   3.6890226  12.4512313  )
        17           O1  tau(  17) = (   1.6476770   2.2313359   1.3730516  )
        18           Ti1 tau(  18) = (   4.9430310   2.2313359   2.6545865  )
        19           O1  tau(  19) = (   4.9430310   2.2313359   4.6684056  )
        20           O1  tau(  20) = (   6.2245660   0.7437786   2.6545865  )
        21           O1  tau(  21) = (   3.6614961   0.7437786   2.6545865  )
        22           Ti1 tau(  22) = (   4.9430310   0.7437786   5.9499405  )
        23           O1  tau(  23) = (   1.6494130   2.2266810   8.0229920  )
        24           O1  tau(  24) = (   4.9430310   2.2313359   7.2314755  )
        25           O1  tau(  25) = (   2.9292120   0.7437786   5.9499405  )
        26           Ti1 tau(  26) = (   4.8570045   2.2038353   9.3960648  )
        27           O1  tau(  27) = (   4.9365002   2.1563787  11.2526517  )
        28           O1  tau(  28) = (   6.2661622   0.7265345   9.2570196  )
        29           O1  tau(  29) = (   3.6607207   0.7252434   9.2585875  )
        30           Ti1 tau(  30) = (   4.8804456   0.7009689  12.7500804  )
        31           O1  tau(  31) = (   4.9885443   2.2055297  13.8060867  )
        32           O1  tau(  32) = (   2.8787315   0.7196740  12.7638696  )
        33           O1  tau(  33) = (   1.6476770   5.2064503   1.3730516  )
        34           Ti1 tau(  34) = (   4.9430310   5.2064503   2.6545865  )
        35           O1  tau(  35) = (   4.9430310   5.2064503   4.6684056  )
        36           O1  tau(  36) = (   6.2245660   3.7188931   2.6545865  )
        37           O1  tau(  37) = (   3.6614961   3.7188931   2.6545865  )
        38           Ti1 tau(  38) = (   4.9430310   3.7188931   5.9499405  )
        39           O1  tau(  39) = (   1.6492404   5.1840375   8.0235373  )
        40           O1  tau(  40) = (   4.9430310   5.2064503   7.2314755  )
        41           O1  tau(  41) = (   2.9292120   3.7188931   5.9499405  )
        42           Ti1 tau(  42) = (   4.8583452   5.1875290   9.3946917  )
        43           O1  tau(  43) = (   4.9366536   5.2195535  11.2514306  )
        44           O1  tau(  44) = (   6.2660656   3.7009687   9.2894568  )
        45           O1  tau(  45) = (   3.6605616   3.6984666   9.2954459  )
        46           Ti1 tau(  46) = (   5.1078939   3.6751672  12.7268755  )
        47           O1  tau(  47) = (   4.9880347   5.1576104  13.8055399  )
        48           O1  tau(  48) = (   3.0285069   3.6936269  12.4216869  )
        49           O1  tau(  49) = (   2.3858682   3.6994311  13.7764468  )

     number of k points=    40  Fermi-Dirac smearing, width (Ry)=  0.0073
                       cart. coord. in units 2pi/alat
        k(    1) = (   0.0000000   0.0000000   0.0000000), wk =   0.0277778
        k(    2) = (   0.0000000   0.0280101   0.0000000), wk =   0.0555556
        k(    3) = (   0.0000000   0.0560203   0.0000000), wk =   0.0555556
        k(    4) = (   0.0000000  -0.0840304   0.0000000), wk =   0.0277778
        k(    5) = (   0.0252881   0.0000000   0.0000000), wk =   0.0555556
        k(    6) = (   0.0252881   0.0280101   0.0000000), wk =   0.0555556
        k(    7) = (   0.0252881   0.0560203   0.0000000), wk =   0.0555556
        k(    8) = (   0.0252881  -0.0840304   0.0000000), wk =   0.0555556
        k(    9) = (   0.0505763   0.0000000   0.0000000), wk =   0.0555556
        k(   10) = (   0.0505763   0.0280101   0.0000000), wk =   0.0555556
        k(   11) = (   0.0505763   0.0560203   0.0000000), wk =   0.0555556
        k(   12) = (   0.0505763  -0.0840304   0.0000000), wk =   0.0555556
        k(   13) = (  -0.0758644   0.0000000   0.0000000), wk =   0.0277778
        k(   14) = (  -0.0758644   0.0280101   0.0000000), wk =   0.0555556
        k(   15) = (  -0.0758644   0.0560203   0.0000000), wk =   0.0555556
        k(   16) = (  -0.0758644  -0.0840304   0.0000000), wk =   0.0277778
        k(   17) = (  -0.0252881   0.0280101   0.0000000), wk =   0.0555556
        k(   18) = (  -0.0252881   0.0560203   0.0000000), wk =   0.0555556
        k(   19) = (  -0.0505763   0.0280101   0.0000000), wk =   0.0555556
        k(   20) = (  -0.0505763   0.0560203   0.0000000), wk =   0.0555556
        k(   21) = (   0.0000000   0.0000000   0.0000000), wk =   0.0277778
        k(   22) = (   0.0000000   0.0280101   0.0000000), wk =   0.0555556
        k(   23) = (   0.0000000   0.0560203   0.0000000), wk =   0.0555556
        k(   24) = (   0.0000000  -0.0840304   0.0000000), wk =   0.0277778
        k(   25) = (   0.0252881   0.0000000   0.0000000), wk =   0.0555556
        k(   26) = (   0.0252881   0.0280101   0.0000000), wk =   0.0555556
        k(   27) = (   0.0252881   0.0560203   0.0000000), wk =   0.0555556
        k(   28) = (   0.0252881  -0.0840304   0.0000000), wk =   0.0555556
        k(   29) = (   0.0505763   0.0000000   0.0000000), wk =   0.0555556
        k(   30) = (   0.0505763   0.0280101   0.0000000), wk =   0.0555556
        k(   31) = (   0.0505763   0.0560203   0.0000000), wk =   0.0555556
        k(   32) = (   0.0505763  -0.0840304   0.0000000), wk =   0.0555556
        k(   33) = (  -0.0758644   0.0000000   0.0000000), wk =   0.0277778
        k(   34) = (  -0.0758644   0.0280101   0.0000000), wk =   0.0555556
        k(   35) = (  -0.0758644   0.0560203   0.0000000), wk =   0.0555556
        k(   36) = (  -0.0758644  -0.0840304   0.0000000), wk =   0.0277778
        k(   37) = (  -0.0252881   0.0280101   0.0000000), wk =   0.0555556
        k(   38) = (  -0.0252881   0.0560203   0.0000000), wk =   0.0555556
        k(   39) = (  -0.0505763   0.0280101   0.0000000), wk =   0.0555556
        k(   40) = (  -0.0505763   0.0560203   0.0000000), wk =   0.0555556

     Largest allocated arrays     est. size (Mb)     dimensions
     Largest temporary arrays     est. size (Mb)     dimensions

     Check: negative/imaginary core charge=   -0.000049    0.000000

     The initial density is read from file :
     ./calc.save/charge-density.dat

     negative rho (up, down):  1.430E-02 1.430E-02

     *
     * You are using vdW-DF for exchange-correlation in this calculation.
     * Please cite the following three references that made this development
     * possible:
     *
[...]
     atom:   29    charge:    2.0875    magn:   -0.0001    constr:    0.0000
     atom:   30    charge:    3.1179    magn:    0.0000    constr:    0.0000
     atom:   31    charge:    2.0848    magn:   -0.0001    constr:    0.0000
     atom:   32    charge:    2.0869    magn:   -0.0001    constr:    0.0000
     atom:   33    charge:    2.0627    magn:    0.0006    constr:    0.0000
     atom:   34    charge:    3.1240    magn:   -0.0001    constr:    0.0000
     atom:   35    charge:    2.0877    magn:   -0.0000    constr:    0.0000
     atom:   36    charge:    2.0846    magn:    0.0001    constr:    0.0000
     atom:   37    charge:    2.0846    magn:    0.0001    constr:    0.0000
     atom:   38    charge:    3.1197    magn:    0.0000    constr:    0.0000
     atom:   39    charge:    2.0911    magn:   -0.0001    constr:    0.0000
     atom:   40    charge:    2.0788    magn:   -0.0000    constr:    0.0000
     atom:   41    charge:    2.0869    magn:   -0.0001    constr:    0.0000
     atom:   42    charge:    3.1145    magn:    0.0000    constr:    0.0000
     atom:   43    charge:    2.0814    magn:   -0.0001    constr:    0.0000
     atom:   44    charge:    2.0857    magn:   -0.0001    constr:    0.0000
     atom:   45    charge:    2.0873    magn:   -0.0001    constr:    0.0000
     atom:   46    charge:    3.1237    magn:    0.0001    constr:    0.0000
     atom:   47    charge:    2.0858    magn:   -0.0001    constr:    0.0000
     atom:   48    charge:    2.0621    magn:   -0.0001    constr:    0.0000
     atom:   49    charge:    2.0475    magn:   -0.0001    constr:    0.0000

     total energy              =   -3004.20065016 Ry
     Harris-Foulkes estimate   =   -3004.22513731 Ry
     estimated scf accuracy    <       0.15331591 Ry

     total magnetization       =     0.00 Bohr mag/cell
     absolute magnetization    =     0.01 Bohr mag/cell

[...]

     total energy              =   -3004.17543983 Ry
     Harris-Foulkes estimate   =   -3004.17543965 Ry
     estimated scf accuracy    <       0.00000148 Ry

[...]

     iteration # 11     ecut=    40.42 Ry     beta=0.10
     Davidson diagonalization with overlap
     ethr =  3.79E-10,  avg # of iterations =  2.0

     negative rho (up, down):  1.429E-02 1.429E-02

     Magnetic moment per site:
     atom:    1    charge:    3.1251    magn:   -0.0000    constr:    0.0000
     atom:    2    charge:    2.0895    magn:    0.0000    constr:    0.0000
     atom:    3    charge:    3.1196    magn:   -0.0000    constr:    0.0000
     atom:    4    charge:    2.0871    magn:   -0.0000    constr:    0.0000
     atom:    5    charge:    3.1167    magn:    0.0000    constr:    0.0000
     atom:    6    charge:    2.0890    magn:   -0.0000    constr:    0.0000
     atom:    7    charge:    3.1216    magn:    0.0000    constr:    0.0000
     atom:    8    charge:    2.0874    magn:   -0.0000    constr:    0.0000
     atom:    9    charge:    3.1251    magn:   -0.0000    constr:    0.0000
     atom:   10    charge:    2.0895    magn:    0.0000    constr:    0.0000
     atom:   11    charge:    3.1196    magn:   -0.0000    constr:    0.0000
     atom:   12    charge:    2.0871    magn:   -0.0000    constr:    0.0000
     atom:   13    charge:    3.1147    magn:    0.0000    constr:    0.0000
     atom:   14    charge:    2.0876    magn:   -0.0000    constr:    0.0000
     atom:   15    charge:    3.1174    magn:    0.0000    constr:    0.0000
     atom:   16    charge:    2.1003    magn:   -0.0000    constr:    0.0000
     atom:   17    charge:    2.0622    magn:    0.0001    constr:    0.0000
     atom:   18    charge:    3.1239    magn:   -0.0000    constr:    0.0000
     atom:   19    charge:    2.0877    magn:    0.0000    constr:    0.0000
     atom:   20    charge:    2.0846    magn:    0.0000    constr:    0.0000
     atom:   21    charge:    2.0846    magn:    0.0000    constr:    0.0000
     atom:   22    charge:    3.1196    magn:    0.0000    constr:    0.0000
     atom:   23    charge:    2.0903    magn:   -0.0000    constr:    0.0000
     atom:   24    charge:    2.0789    magn:   -0.0000    constr:    0.0000
     atom:   25    charge:    2.0869    magn:   -0.0000    constr:    0.0000
     atom:   26    charge:    3.1149    magn:    0.0000    constr:    0.0000
     atom:   27    charge:    2.0818    magn:   -0.0000    constr:    0.0000
     atom:   28    charge:    2.0885    magn:   -0.0000    constr:    0.0000
     atom:   29    charge:    2.0876    magn:   -0.0000    constr:    0.0000
     atom:   30    charge:    3.1182    magn:    0.0000    constr:    0.0000
     atom:   31    charge:    2.0830    magn:   -0.0000    constr:    0.0000
     atom:   32    charge:    2.0861    magn:   -0.0000    constr:    0.0000
     atom:   33    charge:    2.0622    magn:    0.0001    constr:    0.0000
     atom:   34    charge:    3.1239    magn:   -0.0000    constr:    0.0000
     atom:   35    charge:    2.0878    magn:    0.0000    constr:    0.0000
     atom:   36    charge:    2.0846    magn:    0.0000    constr:    0.0000
     atom:   37    charge:    2.0846    magn:    0.0000    constr:    0.0000
     atom:   38    charge:    3.1196    magn:    0.0000    constr:    0.0000
     atom:   39    charge:    2.0910    magn:   -0.0000    constr:    0.0000
     atom:   40    charge:    2.0790    magn:   -0.0000    constr:    0.0000
     atom:   41    charge:    2.0869    magn:   -0.0000    constr:    0.0000
     atom:   42    charge:    3.1146    magn:    0.0000    constr:    0.0000
     atom:   43    charge:    2.0817    magn:   -0.0000    constr:    0.0000
     atom:   44    charge:    2.0857    magn:   -0.0000    constr:    0.0000
     atom:   45    charge:    2.0874    magn:   -0.0000    constr:    0.0000
     atom:   46    charge:    3.1240    magn:    0.0000    constr:    0.0000
     atom:   47    charge:    2.0841    magn:   -0.0000    constr:    0.0000
     atom:   48    charge:    2.0669    magn:   -0.0000    constr:    0.0000
     atom:   49    charge:    2.0415    magn:   -0.0000    constr:    0.0000

     End of self-consistent calculation

 ------ SPIN UP ------------

          k = 0.0000 0.0000 0.0000 ( 34665 PWs)   bands (ev):

   -58.2665 -58.2315 -58.1097 -58.0707 -57.9420 -57.8936 -57.7191 -57.6837
   -57.6628 -57.6276 -57.5872 -57.5509 -57.3924 -57.2341 -56.7131 -56.6778
   -34.7018 -34.6715 -34.5488 -34.5203 -34.4882 -34.4673 -34.4136 -34.3747
   -34.3730 -34.3270 -34.3121 -34.3026 -34.2304 -34.2148 -34.2105 -34.1578
   -34.1561 -34.1221 -34.1131 -34.1005 -34.0785 -34.0044 -33.9142 -33.8972
   -33.8810 -33.8711 -33.8586 -33.8504 -33.8356 -33.8318 -33.8213 -33.8190
   -33.7843 -33.7756 -33.7637 -33.7446 -33.7176 -33.6970 -33.6336 -33.6135
   -33.4649 -33.3940 -33.1315 -33.0653 -33.0392 -32.9358 -32.8440 -32.7354
   -22.1956 -18.6148 -18.4250 -18.3171 -18.0971 -17.9526 -17.9084 -17.8357
   -17.6684 -17.6296 -17.5625 -17.5291 -17.5201 -17.4758 -17.4476 -17.4068
   -17.3807 -17.3118 -17.2733 -17.1746 -17.1404 -17.0214 -17.0172 -16.9844
   -16.8720 -16.7824 -16.7584 -16.7388 -16.5996 -16.5693 -15.7939 -15.2923
   -15.2071  -6.8670  -6.4230  -6.1442  -5.9850  -5.9421  -5.8021  -5.7391
    -5.4724  -5.4266  -5.3535  -5.1001  -5.0521  -5.0088  -4.9870  -4.8987
    -4.8668  -4.8023  -4.7319  -4.6705  -4.6669  -4.6434  -4.5936  -4.5843
    -4.5389  -4.5249  -4.5052  -4.4414  -4.3585  -4.3094  -4.2562  -4.2061
    -4.1797  -4.1117  -4.1040  -4.0734  -4.0335  -3.9743  -3.9704  -3.9449
    -3.8515  -3.6589  -3.6147  -3.5543  -3.4751  -3.4429  -3.4163  -3.2995
    -3.2078  -3.1938  -3.1759  -3.1575  -3.0100  -2.9848  -2.9493  -2.9364
    -2.8744  -2.8364  -2.8011  -2.7784  -2.7723  -2.7014  -2.6890  -2.6153
    -2.5458  -2.4947  -2.4130  -2.3467  -2.2222  -2.1501  -2.1497  -2.0828
    -2.0635  -2.0069  -1.9396  -1.9089  -1.8978  -1.8920  -1.8296  -1.7868
    -1.7583  -1.7209  -1.6517  -1.6414  -1.6245  -1.5665  -1.5363  -1.3833
    -1.2645  -1.2087  -1.1702  -1.1501  -1.0530  -0.7921  -0.6620  -0.6484
    -0.4365  -0.3102  -0.2963   1.0760   1.1020   1.1749   1.3805   1.4355
     1.4399   1.5228   1.6116   1.6526   1.7681   1.8643   1.8759   1.9307
     1.9503   1.9653   1.9910   2.0554   2.0829   2.0928   2.1406   2.1476
     2.2302   2.2455   2.2799   2.3042   2.4856   2.4964   2.5378   2.5461
     2.5523   2.6070   2.6168   2.6301   2.6620   2.6976   2.7541   2.8304
     2.8346   2.8675   2.8958   2.9622   3.0365   3.0425   3.1209   3.3708
     3.5190   3.5251   3.5952   3.6148   3.6322   3.7279   3.8226   4.0273
     4.0769   4.2080   4.4857   4.5021   4.6046   4.6416   4.7646   4.9128
     4.9261   5.0084   5.1266   5.1794   5.1923   5.2340   5.2569   5.2597
     5.3108   5.3880   5.4825   5.5433   5.5803   5.6315   5.6691   5.7721
     5.8985   5.9829   6.0221   6.3613   6.4029   6.4544   6.5617   6.7358
     7.1857   7.8005   7.9757   8.3077   8.5811   8.5905   8.8122   8.8684
     8.9220   9.1893   9.2515   9.3151   9.3537   9.5849   9.6749

[...]

          k =-0.0759 0.0000 0.0000 ( 34758 PWs)   bands (ev):

[...]

 ------ SPIN DOWN ----------

[...]

          k = 0.0506-0.0840 0.0000 ( 34628 PWs)   bands (ev):

[...]

          k =-0.0506 0.0560 0.0000 ( 34596 PWs)   bands (ev):

   -58.2579 -58.2404 -58.1013 -58.0791 -57.9363 -57.8992 -57.7102 -57.6925
   -57.6542 -57.6364 -57.5788 -57.5593 -57.3908 -57.2357 -56.7045 -56.6869
   -34.6076 -34.5737 -34.5415 -34.5273 -34.4424 -34.4124 -34.3989 -34.3964
   -34.3866 -34.3653 -34.3504 -34.3346 -34.3080 -34.2086 -34.1657 -34.1459
   -34.1409 -34.1213 -34.1181 -34.0620 -34.0030 -33.9604 -33.9261 -33.9069
   -33.8925 -33.8890 -33.8776 -33.8652 -33.8489 -33.8432 -33.8424 -33.8326
   -33.8089 -33.7957 -33.7787 -33.7724 -33.7417 -33.6971 -33.6309 -33.6131
   -33.4965 -33.4653 -33.0608 -33.0454 -33.0350 -32.9134 -32.8674 -32.8372
   -22.1705 -18.3230 -18.1289 -18.0610 -17.9515 -17.8404 -17.8280 -17.7919
   -17.7545 -17.7392 -17.7032 -17.6293 -17.6150 -17.5140 -17.4583 -17.4293
   -17.4278 -17.3674 -17.2743 -17.2458 -17.1829 -17.1549 -17.1133 -16.9632
   -16.8509 -16.8202 -16.7907 -16.7469 -16.7436 -16.6700 -15.7781 -15.3171
   -15.2806  -6.5624  -6.2460  -6.0980  -5.6037  -5.2610  -5.2268  -5.1948
    -5.1444  -5.1174  -5.0981  -5.0603  -5.0403  -4.9723  -4.9094  -4.8813
    -4.8727  -4.7966  -4.7726  -4.7243  -4.7164  -4.6805  -4.6590  -4.6320
    -4.6066  -4.5974  -4.5397  -4.4906  -4.4725  -4.4174  -4.3501  -4.2802
    -4.2230  -4.1938  -4.1055  -4.0109  -3.9599  -3.9222  -3.8567  -3.8223
    -3.6818  -3.6242  -3.5709  -3.5144  -3.4944  -3.4564  -3.3904  -3.3664
    -3.3072  -3.2717  -3.2395  -3.1990  -3.1253  -3.0989  -3.0605  -3.0097
    -2.9542  -2.9283  -2.9084  -2.8749  -2.8518  -2.7944  -2.7579  -2.7476
    -2.7064  -2.6863  -2.5810  -2.5430  -2.5235  -2.4802  -2.4467  -2.3811
    -2.3249  -2.2601  -2.1922  -2.1079  -2.0502  -2.0037  -1.9659  -1.9015
    -1.8841  -1.8248  -1.7537  -1.6730  -1.6356  -1.5710  -1.5402  -1.4801
    -1.3868  -1.3606  -1.2962  -1.2468  -1.2332  -1.0690  -0.9218  -0.4804
    -0.4443  -0.4279  -0.3703   1.2925   1.4174   1.5093   1.5100   1.6191
     1.6442   1.6789   1.6919   1.7468   1.8198   1.8391   1.9298   1.9699
     1.9877   2.0166   2.0317   2.0603   2.1288   2.1498   2.1998   2.2337
     2.2517   2.3353   2.3970   2.4244   2.4345   2.4656   2.5337   2.5521
     2.6839   2.7095   2.7575   2.7721   2.8362   2.8504   2.8801   2.9166
     2.9792   3.0398   3.0603   3.1620   3.1867   3.2517   3.3077   3.3413
     3.3542   3.3652   3.5423   3.5804   3.6292   3.7207   3.7903   3.8323
     4.0731   4.2298   4.2431   4.2956   4.4425   4.4701   4.5622   4.6650
     4.7048   4.7604   4.8637   5.0012   5.1356   5.2060   5.2721   5.3468
     5.4746   5.5183   5.6224   5.7505   5.7799   5.7902   5.8384   5.9894
     6.0655   6.0890   6.1621   6.2598   6.3501   6.4240   6.7655   6.9484
     7.1804   7.4599   7.6296   7.7341   8.0483   8.1090   8.1918   8.5368
     8.7145   8.7996   8.9133   9.0735   9.0911   9.4075   9.4794

     the Fermi energy is     0.4239 ev

!    total energy              =   -3004.17544084 Ry
     Harris-Foulkes estimate   =   -3004.17543989 Ry
     estimated scf accuracy    <       0.00000055 Ry

     The total energy is the sum of the following terms:

     one-electron contribution =  -42045.94625640 Ry
     hartree contribution      =   21085.23719649 Ry
     xc contribution           =    -546.20937169 Ry
     ewald contribution        =   18502.74323096 Ry
     smearing contrib. (-TS)   =      -0.00024020 Ry

     total magnetization       =     0.00 Bohr mag/cell
     absolute magnetization    =     0.00 Bohr mag/cell

     convergence has been achieved in  11 iterations

     Forces acting on atoms (Ry/au):

     negative rho (up, down):  1.429E-02 1.429E-02
     atom    1 type  1   force =    -0.00016138    0.00030116   -0.13702846
     atom    2 type  2   force =     0.00006255   -0.00010143    0.07536818
     atom    3 type  1   force =     0.00070769    0.00084421   -0.05938801
     atom    4 type  2   force =     0.00467430   -0.00035593    0.00933418
     atom    5 type  1   force =     0.00008358    0.00013950   -0.00016621
     atom    6 type  2   force =     0.00011388    0.00036962   -0.00120530
     atom    7 type  1   force =     0.00194959    0.00172495    0.00278235
     atom    8 type  2   force =    -0.00041697   -0.00011818   -0.00023132
     atom    9 type  1   force =    -0.00009275    0.00040639   -0.13706737
     atom   10 type  2   force =     0.00012784   -0.00026941    0.07536758
     atom   11 type  1   force =     0.00077316   -0.00088779   -0.05956244
     atom   12 type  2   force =     0.00432366   -0.00010062    0.00819500
     atom   13 type  1   force =    -0.00058876   -0.00061190   -0.00008396
     atom   14 type  2   force =     0.00004183   -0.00019382    0.00031795
     atom   15 type  1   force =     0.00127118   -0.00128971    0.00248558
     atom   16 type  2   force =     0.00222716    0.00074186    0.00008825
     atom   17 type  2   force =     0.00026791   -0.00006421    0.08093013
     atom   18 type  1   force =    -0.00016492    0.00031524    0.11705798
     atom   19 type  2   force =     0.00028339    0.00017216   -0.06542541
     atom   20 type  2   force =    -0.06323356   -0.00005425   -0.03172457
     atom   21 type  2   force =     0.06296723    0.00014789   -0.03161473
     atom   22 type  1   force =    -0.00065317   -0.00000031    0.05923670
     atom   23 type  2   force =    -0.00015070    0.00025825   -0.00020162
     atom   24 type  2   force =     0.00057572   -0.00014464   -0.02278300
     atom   25 type  2   force =    -0.00455427   -0.00031781    0.00819229
     atom   26 type  1   force =    -0.00005859    0.00047034    0.00025116
     atom   27 type  2   force =     0.00008354    0.00004420   -0.00090737
     atom   28 type  2   force =    -0.00105794   -0.00006504   -0.00016185
     atom   29 type  2   force =     0.00025643   -0.00019586   -0.00013032
     atom   30 type  1   force =    -0.00022335    0.00064667    0.00194392
     atom   31 type  2   force =     0.00046501   -0.00063247   -0.00072362
     atom   32 type  2   force =    -0.00030647   -0.00022633   -0.00071328
     atom   33 type  2   force =     0.00023506    0.00004905    0.08094486
     atom   34 type  1   force =    -0.00023151    0.00026722    0.11697199
     atom   35 type  2   force =     0.00031670    0.00015955   -0.06545627
     atom   36 type  2   force =    -0.06306955    0.00016050   -0.03188301
     atom   37 type  2   force =     0.06314998    0.00020000   -0.03152362
     atom   38 type  1   force =    -0.00049715   -0.00025283    0.05885452
     atom   39 type  2   force =     0.00007868   -0.00050160   -0.00067776
     atom   40 type  2   force =     0.00042131   -0.00224909   -0.02232037
     atom   41 type  2   force =    -0.00416569   -0.00027676    0.00762489
     atom   42 type  1   force =    -0.00034956   -0.00048586    0.00025795
     atom   43 type  2   force =     0.00010812   -0.00000053   -0.00073764
     atom   44 type  2   force =     0.00040076    0.00017748   -0.00004209
     atom   45 type  2   force =    -0.00022828   -0.00014171   -0.00013564
     atom   46 type  1   force =    -0.00298779    0.00021797    0.00176582
     atom   47 type  2   force =     0.00042134    0.00067494   -0.00087319
     atom   48 type  2   force =    -0.00801895    0.00092372    0.01799948
     atom   49 type  2   force =     0.00482370    0.00012521   -0.02320233

     Total force =     0.366555     Total SCF correction =     0.002213
 !ASE

     Writing output data file calc.save

     General routines

     Parallel routines

   This run was terminated on:  23: 0:25  10Feb2018

   JOB DONE.