     Program PWSCF v.5.1rc2 (svn rev. ) starts on 26Feb2018 at 13: 4:29

     Current dimensions of program PWSCF are:
     Max number of different atomic species (ntypx) = 10
     Max number of k-points (npk) =  40000
     Max angular momentum in pseudopotentials (lmaxx) =  3

     IMPORTANT: XC functional enforced from input :
     Exchange-correlation      = BEEF ( 1  4 27 13 2)
     Any further DFT definition will be discarded
     Please, verify this is what you really want

     Subspace diagonalization in iterative solution of the eigenvalue problem:
     a serial algorithm will be used

     Generating pointlists ...
     new r_m :   0.4125 (alat units)  0.7795 (a.u.) for type    1
     new r_m :   0.4125 (alat units)  0.7795 (a.u.) for type    2
     new r_m :   0.4125 (alat units)  0.7795 (a.u.) for type    3
     new r_m :   0.4125 (alat units)  0.7795 (a.u.) for type    4

     bravais-lattice index     =            0
     lattice parameter (alat)  =       1.8897  a.u.
     unit-cell volume          =    7990.9933 (a.u.)^3
     number of atoms/cell      =           54
     number of atomic types    =            4
     number of electrons       =       398.00
     number of Kohn-Sham states=          299
     kinetic-energy cutoff     =      40.4243  Ry
     charge density cutoff     =     404.2426  Ry
     convergence threshold     =      7.3E-07
     mixing beta               =       0.1000
     number of iterations used =           10  plain     mixing
     Exchange-correlation      = BEEF ( 1  4 27 13 2)
     nstep                     =           50

     celldm(1)=   1.889726  celldm(2)=   0.000000  celldm(3)=   0.000000
     celldm(4)=   0.000000  celldm(5)=   0.000000  celldm(6)=   0.000000

     crystal axes: (cart. coord. in units of alat)
               a(1) = (   6.590708   0.000000   0.000000 )
               a(2) = (   0.000000   5.950229   0.000000 )
               a(3) = (   0.000000   0.000000  30.195235 )

     reciprocal axes: (cart. coord. in units 2 pi/alat)
               b(1) = (  0.151729  0.000000  0.000000 )
               b(2) = (  0.000000  0.168061  0.000000 )
               b(3) = (  0.000000  0.000000  0.033118 )

     PseudoPot. # 1 for Ti read from file:
     /home/alatimer/bin/psp/esp_psp_w_gbrvRu/Ti.UPF
     MD5 check sum: 8e4df49b7f0d34bbd5052bf3f5ea0213
     Pseudo is Ultrasoft, Zval = 12.0
     Generated by new atomic code, or converted to UPF format
     Using radial grid of  851 points,  6 beta functions with:
                l(1) =   0
                l(2) =   0
                l(3) =   1
                l(4) =   1
                l(5) =   2
                l(6) =   2
     Q(r) pseudized with  8 coefficients,  rinner =    1.000   1.000   1.000
                                                       1.000   1.000

     PseudoPot. # 2 for  O read from file:
     /home/alatimer/bin/psp/esp_psp_w_gbrvRu/O.UPF
     MD5 check sum: e057bbcf3229fb5d8c36c0c92f9568b4
     Pseudo is Ultrasoft + core correction, Zval =  6.0
     Generated using "atomic" code by A. Dal Corso  v.5.0.2 svn rev. 9415
     Using radial grid of 1095 points,  4 beta functions with:
                l(1) =   0
                l(2) =   0
                l(3) =   1
                l(4) =   1
     Q(r) pseudized with 0 coefficients

     PseudoPot. # 3 for  C read from file:
     /home/alatimer/bin/psp/esp_psp_w_gbrvRu/C.UPF
     MD5 check sum: ab446d787031eba755f1d5ee46644bb0
     Pseudo is Ultrasoft + core correction, Zval =  4.0
     Generated using "atomic" code by A. Dal Corso  v.5.0.2 svn rev. 9415
     Using radial grid of 1073 points,  4 beta functions with:
                l(1) =   0
                l(2) =   0
                l(3) =   1
                l(4) =   1
     Q(r) pseudized with 0 coefficients

     PseudoPot. # 4 for  H read from file:
     /home/alatimer/bin/psp/esp_psp_w_gbrvRu/H.UPF
     MD5 check sum: bd57da0722753ddfd9833a65b40bb853
     Pseudo is Ultrasoft, Zval =  1.0
     Generated using "atomic" code by A. Dal Corso  v.5.0.2 svn rev. 9415
     Using radial grid of  929 points,  2 beta functions with:
                l(1) =   0
                l(2) =   0
     Q(r) pseudized with 0 coefficients

     vdW kernel table read from file vdW_kernel_table
     MD5 check sum: 095c7af220d748ca6e76c0b4c6cfb241

     atomic species   valence    mass     pseudopotential
        Ti1           12.00    47.88000     Ti( 1.00)
        O1             6.00    15.99940      O( 1.00)
        C1             4.00    12.01100      C( 1.00)
        H1             1.00     1.00794      H( 1.00)

     Starting magnetic structure
     atomic species   magnetization
        Ti1          0.250
        O1           0.500
        C1           0.750
        H1           0.000

     No symmetry found

   Cartesian axes

     site n.     atom                  positions (alat units)
         1           Ti1 tau(   1) = (   1.6476770   0.7437786   2.6545865  )
         2           O1  tau(   2) = (   1.6476770   2.2313359   3.9361215  )
         3           Ti1 tau(   3) = (   1.6476770   2.2313359   5.9499405  )
         4           O1  tau(   4) = (   0.3661420   0.7437786   5.9499405  )
         5           Ti1 tau(   5) = (   1.6407309   0.9134410   9.3139491  )
         6           O1  tau(   6) = (   1.6648823   2.2608486  10.4895904  )
         7           Ti1 tau(   7) = (   1.7578240   2.2899216  13.0472362  )
         8           O1  tau(   8) = (   0.4801583   0.7600008  12.7739736  )
         9           Ti1 tau(   9) = (   1.6476770   3.7188931   2.6545865  )
        10           O1  tau(  10) = (   1.6476770   5.2064503   3.9361215  )
        11           Ti1 tau(  11) = (   1.6476770   5.2064503   5.9499405  )
        12           O1  tau(  12) = (   0.3661420   3.7188931   5.9499405  )
        13           Ti1 tau(  13) = (   1.6336050   3.7786827   9.1566831  )
        14           O1  tau(  14) = (   1.6678212   5.2513959  10.5409436  )
        15           Ti1 tau(  15) = (   1.7144009   5.2558216  12.3462911  )
        16           O1  tau(  16) = (   0.4635505   3.7986228  12.7318280  )
        17           O1  tau(  17) = (   1.6476770   2.2313359   1.3730516  )
        18           Ti1 tau(  18) = (   4.9430310   2.2313359   2.6545865  )
        19           O1  tau(  19) = (   4.9430310   2.2313359   4.6684056  )
        20           O1  tau(  20) = (   6.2245660   0.7437786   2.6545865  )
        21           O1  tau(  21) = (   3.6614961   0.7437786   2.6545865  )
        22           Ti1 tau(  22) = (   4.9430310   0.7437786   5.9499405  )
        23           O1  tau(  23) = (   1.6683653   2.2752577   7.9427336  )
        24           O1  tau(  24) = (   4.9430310   2.2313359   7.2314755  )
        25           O1  tau(  25) = (   2.9292120   0.7437786   5.9499405  )
        26           Ti1 tau(  26) = (   4.9404121   2.2664794   9.4552217  )
        27           O1  tau(  27) = (   5.0099888   2.2616732  11.2946145  )
        28           O1  tau(  28) = (   6.2612001   0.7714827   9.2659748  )
        29           O1  tau(  29) = (   3.6791272   0.7744986   9.2965846  )
        30           Ti1 tau(  30) = (   5.0117873   0.7976728  12.8161605  )
        31           O1  tau(  31) = (   4.9963122   2.2836652  13.8750618  )
        32           O1  tau(  32) = (   2.9819382   0.7448324  12.7109220  )
        33           O1  tau(  33) = (   1.6476770   5.2064503   1.3730516  )
        34           Ti1 tau(  34) = (   4.9430310   5.2064503   2.6545865  )
        35           O1  tau(  35) = (   4.9430310   5.2064503   4.6684056  )
        36           O1  tau(  36) = (   6.2245660   3.7188931   2.6545865  )
        37           O1  tau(  37) = (   3.6614961   3.7188931   2.6545865  )
        38           Ti1 tau(  38) = (   4.9430310   3.7188931   5.9499405  )
        39           O1  tau(  39) = (   1.6664207   5.2035600   7.9365221  )
        40           O1  tau(  40) = (   4.9430310   5.2064503   7.2314755  )
        41           O1  tau(  41) = (   2.9292120   3.7188931   5.9499405  )
        42           Ti1 tau(  42) = (   4.9524353   5.2460635   9.4426343  )
        43           O1  tau(  43) = (   5.0107556   5.2394944  11.2927493  )
        44           O1  tau(  44) = (   6.2663940   3.7551737   9.2646230  )
        45           O1  tau(  45) = (   3.6780957   3.7542261   9.2971476  )
        46           Ti1 tau(  46) = (   5.0587989   3.7766986  12.8010349  )
        47           O1  tau(  47) = (   5.0196089   5.2502198  13.8813978  )
        48           O1  tau(  48) = (   2.9624133   3.7943242  12.7299881  )
        49           O1  tau(  49) = (   1.7427453   2.2533568  14.8370015  )
        50           C1  tau(  50) = (   2.7196098   4.2826273  16.2318421  )
        51           H1  tau(  51) = (   3.3037454   4.9255546  15.5827400  )
        52           H1  tau(  52) = (   3.3586606   3.7870117  16.9822022  )
        53           H1  tau(  53) = (   2.3125587   3.4026405  15.5729816  )
        54           H1  tau(  54) = (   1.8391288   4.7650601  16.6448379  )

     number of k points=    40  Fermi-Dirac smearing, width (Ry)=  0.0073
                       cart. coord. in units 2pi/alat
        k(    1) = (   0.0000000   0.0000000   0.0000000), wk =   0.0277778
        k(    2) = (   0.0000000   0.0280101   0.0000000), wk =   0.0555556
        k(    3) = (   0.0000000   0.0560203   0.0000000), wk =   0.0555556
        k(    4) = (   0.0000000  -0.0840304   0.0000000), wk =   0.0277778
        k(    5) = (   0.0252881   0.0000000   0.0000000), wk =   0.0555556
        k(    6) = (   0.0252881   0.0280101   0.0000000), wk =   0.0555556
        k(    7) = (   0.0252881   0.0560203   0.0000000), wk =   0.0555556
        k(    8) = (   0.0252881  -0.0840304   0.0000000), wk =   0.0555556
        k(    9) = (   0.0505763   0.0000000   0.0000000), wk =   0.0555556
        k(   10) = (   0.0505763   0.0280101   0.0000000), wk =   0.0555556
        k(   11) = (   0.0505763   0.0560203   0.0000000), wk =   0.0555556
        k(   12) = (   0.0505763  -0.0840304   0.0000000), wk =   0.0555556
        k(   13) = (  -0.0758644   0.0000000   0.0000000), wk =   0.0277778
        k(   14) = (  -0.0758644   0.0280101   0.0000000), wk =   0.0555556
        k(   15) = (  -0.0758644   0.0560203   0.0000000), wk =   0.0555556
        k(   16) = (  -0.0758644  -0.0840304   0.0000000), wk =   0.0277778
        k(   17) = (  -0.0252881   0.0280101   0.0000000), wk =   0.0555556
        k(   18) = (  -0.0252881   0.0560203   0.0000000), wk =   0.0555556
        k(   19) = (  -0.0505763   0.0280101   0.0000000), wk =   0.0555556
        k(   20) = (  -0.0505763   0.0560203   0.0000000), wk =   0.0555556
        k(   21) = (   0.0000000   0.0000000   0.0000000), wk =   0.0277778
        k(   22) = (   0.0000000   0.0280101   0.0000000), wk =   0.0555556
        k(   23) = (   0.0000000   0.0560203   0.0000000), wk =   0.0555556
        k(   24) = (   0.0000000  -0.0840304   0.0000000), wk =   0.0277778
        k(   25) = (   0.0252881   0.0000000   0.0000000), wk =   0.0555556
        k(   26) = (   0.0252881   0.0280101   0.0000000), wk =   0.0555556
[...]
     atom:   44    charge:    2.0851    magn:    0.0008    constr:    0.0000
     atom:   45    charge:    2.0859    magn:    0.0004    constr:    0.0000
     atom:   46    charge:    3.1147    magn:   -0.0007    constr:    0.0000
     atom:   47    charge:    2.0807    magn:    0.0046    constr:    0.0000
     atom:   48    charge:    2.0838    magn:    0.0136    constr:    0.0000
     atom:   49    charge:    2.0518    magn:    0.2396    constr:    0.0000
     atom:   50    charge:    0.6703    magn:    0.0548    constr:    0.0000
     atom:   51    charge:    0.4222    magn:    0.0009    constr:    0.0000
     atom:   52    charge:    0.4129    magn:    0.0008    constr:    0.0000
     atom:   53    charge:    0.3674    magn:    0.0234    constr:    0.0000
     atom:   54    charge:    0.4230    magn:    0.0006    constr:    0.0000

     total energy              =   -3021.14970721 Ry
     Harris-Foulkes estimate   =   -3021.14991771 Ry
     estimated scf accuracy    <       0.00202386 Ry

     total magnetization       =     1.06 Bohr mag/cell
     absolute magnetization    =     1.23 Bohr mag/cell

[...]

     total energy              =   -3021.14948949 Ry
     Harris-Foulkes estimate   =   -3021.14948986 Ry
     estimated scf accuracy    <       0.00000140 Ry

[...]

     iteration # 10     ecut=    40.42 Ry     beta=0.10
     Davidson diagonalization with overlap
     ethr =  3.52E-10,  avg # of iterations =  3.1

     negative rho (up, down):  1.188E-02 1.194E-02

     Magnetic moment per site:
     atom:    1    charge:    3.1244    magn:   -0.0001    constr:    0.0000
     atom:    2    charge:    2.0897    magn:    0.0001    constr:    0.0000
     atom:    3    charge:    3.1198    magn:   -0.0000    constr:    0.0000
     atom:    4    charge:    2.0867    magn:   -0.0001    constr:    0.0000
     atom:    5    charge:    3.1161    magn:   -0.0003    constr:    0.0000
     atom:    6    charge:    2.0795    magn:    0.0022    constr:    0.0000
     atom:    7    charge:    3.1167    magn:   -0.0053    constr:    0.0000
     atom:    8    charge:    2.0793    magn:    0.0250    constr:    0.0000
     atom:    9    charge:    3.1244    magn:   -0.0001    constr:    0.0000
     atom:   10    charge:    2.0898    magn:    0.0001    constr:    0.0000
     atom:   11    charge:    3.1198    magn:   -0.0000    constr:    0.0000
     atom:   12    charge:    2.0870    magn:   -0.0000    constr:    0.0000
     atom:   13    charge:    3.1150    magn:   -0.0002    constr:    0.0000
     atom:   14    charge:    2.0939    magn:    0.0023    constr:    0.0000
     atom:   15    charge:    3.1184    magn:   -0.0008    constr:    0.0000
     atom:   16    charge:    2.0828    magn:    0.0047    constr:    0.0000
     atom:   17    charge:    2.0624    magn:    0.0007    constr:    0.0000
     atom:   18    charge:    3.1239    magn:   -0.0000    constr:    0.0000
     atom:   19    charge:    2.0876    magn:    0.0000    constr:    0.0000
     atom:   20    charge:    2.0847    magn:    0.0001    constr:    0.0000
     atom:   21    charge:    2.0847    magn:    0.0001    constr:    0.0000
     atom:   22    charge:    3.1199    magn:    0.0000    constr:    0.0000
     atom:   23    charge:    2.0908    magn:    0.0003    constr:    0.0000
     atom:   24    charge:    2.0754    magn:   -0.0000    constr:    0.0000
     atom:   25    charge:    2.0867    magn:    0.0000    constr:    0.0000
     atom:   26    charge:    3.1127    magn:   -0.0003    constr:    0.0000
     atom:   27    charge:    2.0803    magn:    0.0027    constr:    0.0000
     atom:   28    charge:    2.0839    magn:    0.0008    constr:    0.0000
     atom:   29    charge:    2.0860    magn:    0.0009    constr:    0.0000
     atom:   30    charge:    3.1171    magn:   -0.0008    constr:    0.0000
     atom:   31    charge:    2.0825    magn:    0.0006    constr:    0.0000
     atom:   32    charge:    2.0829    magn:    0.0065    constr:    0.0000
     atom:   33    charge:    2.0624    magn:    0.0008    constr:    0.0000
     atom:   34    charge:    3.1239    magn:   -0.0000    constr:    0.0000
     atom:   35    charge:    2.0876    magn:    0.0000    constr:    0.0000
     atom:   36    charge:    2.0847    magn:    0.0001    constr:    0.0000
     atom:   37    charge:    2.0847    magn:    0.0001    constr:    0.0000
     atom:   38    charge:    3.1200    magn:    0.0000    constr:    0.0000
     atom:   39    charge:    2.0839    magn:    0.0002    constr:    0.0000
     atom:   40    charge:    2.0756    magn:   -0.0001    constr:    0.0000
     atom:   41    charge:    2.0870    magn:   -0.0000    constr:    0.0000
     atom:   42    charge:    3.1151    magn:   -0.0003    constr:    0.0000
     atom:   43    charge:    2.0803    magn:    0.0032    constr:    0.0000
     atom:   44    charge:    2.0851    magn:    0.0010    constr:    0.0000
     atom:   45    charge:    2.0858    magn:    0.0006    constr:    0.0000
     atom:   46    charge:    3.1148    magn:   -0.0007    constr:    0.0000
     atom:   47    charge:    2.0806    magn:    0.0047    constr:    0.0000
     atom:   48    charge:    2.0837    magn:    0.0137    constr:    0.0000
     atom:   49    charge:    2.0517    magn:    0.2399    constr:    0.0000
     atom:   50    charge:    0.6689    magn:    0.0546    constr:    0.0000
     atom:   51    charge:    0.4224    magn:    0.0009    constr:    0.0000
     atom:   52    charge:    0.4129    magn:    0.0007    constr:    0.0000
     atom:   53    charge:    0.3675    magn:    0.0231    constr:    0.0000
     atom:   54    charge:    0.4227    magn:    0.0008    constr:    0.0000

     End of self-consistent calculation

 ------ SPIN UP ------------

          k = 0.0000 0.0000 0.0000 ( 34665 PWs)   bands (ev):

   -58.3075 -58.2725 -57.3896 -57.3839 -57.3509 -57.3132 -57.2618 -57.0927
   -57.0664 -57.0609 -57.0225 -56.9236 -56.8981 -56.8884 -56.8032 -56.7648
   -34.7528 -34.5761 -34.5474 -34.5141 -34.4191 -34.3623 -33.8846 -33.8722
   -33.7542 -33.6811 -33.6392 -33.5963 -33.5641 -33.5571 -33.5512 -33.5447
   -33.5330 -33.5182 -33.4928 -33.4913 -33.4769 -33.4748 -33.4725 -33.4534
   -33.3430 -33.3381 -33.3336 -33.3310 -33.3178 -33.2900 -33.2846 -33.2644
   -33.2442 -33.2388 -33.2386 -33.2293 -33.1995 -33.1787 -33.1431 -33.1422
   -33.1035 -33.0812 -33.0523 -33.0310 -33.0177 -32.9921 -32.9506 -32.8844
   -18.4729 -18.0401 -17.8158 -17.7153 -17.5549 -17.5333 -17.4894 -17.3877
   -17.3610 -17.2608 -17.0488 -17.0281 -17.0203 -16.9887 -16.9280 -16.8581
   -16.8391 -16.8016 -16.7437 -16.7116 -16.6928 -16.6603 -16.5965 -16.5922
   -16.4695 -16.4218 -16.4028 -16.3652 -16.3292 -16.1499 -16.0891 -15.6029
   -15.5421 -11.1532  -6.0514  -5.5003  -5.2862  -5.2062  -5.0974  -4.9952
    -4.9853  -4.9212  -4.8821  -4.7361  -4.6535  -4.6031  -4.5891  -4.5138
    -4.4325  -4.4173  -4.3559  -4.3198  -4.2356  -4.2223  -4.1979  -4.1456
    -4.0345  -4.0269  -3.9819  -3.9117  -3.8956  -3.8895  -3.8868  -3.8248
    -3.7802  -3.7547  -3.7216  -3.6371  -3.5982  -3.5766  -3.5439  -3.5313
    -3.5119  -3.4220  -3.4106  -3.3623  -3.2762  -3.2356  -3.1910  -3.0902
    -2.9239  -2.9002  -2.8543  -2.8054  -2.7492  -2.6971  -2.6755  -2.6645
    -2.6368  -2.5400  -2.4884  -2.4421  -2.3810  -2.3360  -2.2506  -2.2325
    -2.2282  -2.1633  -2.0723  -2.0444  -2.0026  -1.9626  -1.9330  -1.9018
    -1.8566  -1.7406  -1.6970  -1.6713  -1.6438  -1.6336  -1.5893  -1.5072
    -1.4239  -1.3702  -1.3559  -1.3408  -1.3168  -1.2719  -1.2271  -1.1736
    -1.1629  -1.1136  -1.1113  -1.0966  -1.0669  -0.9832  -0.8764  -0.8359
    -0.8115  -0.6963  -0.6901  -0.6272  -0.5552  -0.5139  -0.4863  -0.1897
     1.0233   1.1200   1.4149   1.6932   1.8014   1.9195   1.9667   2.0135
     2.0436   2.1308   2.2076   2.2282   2.2745   2.3932   2.4685   2.4823
     2.4894   2.5164   2.6192   2.6645   2.6693   2.6857   2.7082   2.8250
     2.8398   2.8843   2.8987   2.9513   2.9663   3.0193   3.0282   3.0494
     3.1034   3.1584   3.1967   3.1980   3.2455   3.2535   3.4093   3.4437
     3.4761   3.5184   3.5955   3.6242   3.6684   3.7123   3.8266   3.9539
     4.1017   4.1329   4.3243   4.4705   4.5921   4.7045   4.7824   4.8332
     5.0835   5.1307   5.2083   5.3515   5.3957   5.4013   5.4243   5.4309
     5.4443   5.5204   5.5525   5.6600   5.7164   5.7333   5.9040   5.9186
     5.9536   6.0729   6.0919   6.1341   6.2157   6.2938   6.4201   6.4876
     6.5406   6.5634   6.7806   6.8120   7.2141   7.9178   8.1515   8.1749
     8.3459   8.3887   8.6153   8.7108   8.7512   8.9587   9.1488   9.2502
     9.2993   9.4436   9.6173

[...]

          k =-0.0759 0.0000 0.0000 ( 34758 PWs)   bands (ev):

[...]

 ------ SPIN DOWN ----------

[...]

          k = 0.0506-0.0840 0.0000 ( 34628 PWs)   bands (ev):

[...]

          k =-0.0506 0.0560 0.0000 ( 34596 PWs)   bands (ev):

   -58.2990 -58.2815 -57.3839 -57.3776 -57.3596 -57.3166 -57.2615 -57.0960
   -57.0678 -57.0562 -57.0307 -56.9232 -56.9157 -56.8980 -56.7976 -56.7777
   -34.6585 -34.5691 -34.5547 -34.4890 -34.4629 -34.4427 -33.7899 -33.7842
   -33.6838 -33.6362 -33.6160 -33.5918 -33.5902 -33.5874 -33.5706 -33.5694
   -33.5464 -33.5334 -33.5319 -33.4980 -33.4942 -33.4674 -33.4453 -33.4174
   -33.3736 -33.3261 -33.3115 -33.3091 -33.2880 -33.2781 -33.2607 -33.2593
   -33.2582 -33.2489 -33.2452 -33.2425 -33.2234 -33.2165 -33.1823 -33.1592
   -33.1208 -33.0782 -33.0759 -33.0526 -33.0420 -33.0248 -33.0122 -32.9862
   -18.1098 -17.8208 -17.7033 -17.6154 -17.5992 -17.5593 -17.3823 -17.3708
   -17.2207 -17.2082 -17.1192 -17.0969 -16.9795 -16.9140 -16.8694 -16.8443
   -16.8255 -16.8095 -16.7636 -16.7377 -16.7228 -16.6293 -16.5986 -16.5083
   -16.4980 -16.4399 -16.4227 -16.4127 -16.2179 -16.1993 -15.8808 -15.6399
   -15.6179 -10.7557  -5.3036  -4.9937  -4.9430  -4.9350  -4.7851  -4.7774
    -4.7184  -4.6415  -4.5284  -4.5083  -4.5025  -4.4198  -4.4053  -4.3827
    -4.3630  -4.3293  -4.3111  -4.2497  -4.2021  -4.1779  -4.1681  -4.1144
    -4.1040  -4.0591  -4.0452  -3.9943  -3.9808  -3.9057  -3.8868  -3.8293
    -3.7813  -3.7078  -3.6756  -3.6165  -3.5824  -3.5528  -3.4895  -3.4314
    -3.3917  -3.3207  -3.2616  -3.2328  -3.1358  -3.1307  -3.0814  -3.0518
    -2.9973  -2.9795  -2.9597  -2.9023  -2.8012  -2.7649  -2.7505  -2.7077
    -2.6314  -2.5888  -2.5469  -2.5042  -2.4801  -2.4161  -2.3910  -2.3712
    -2.3527  -2.2916  -2.1966  -2.1737  -2.1487  -2.1304  -2.1043  -2.0497
    -2.0148  -1.9731  -1.9458  -1.8722  -1.8500  -1.7835  -1.7327  -1.6584
    -1.5678  -1.5506  -1.5403  -1.4981  -1.4450  -1.3868  -1.3547  -1.3078
    -1.2459  -1.1771  -1.0787  -1.0234  -0.9901  -0.9048  -0.8541  -0.8468
    -0.7951  -0.7081  -0.6938  -0.6726  -0.6574  -0.5546  -0.4772   0.3012
     1.3067   1.4964   1.6451   1.6669   1.8515   2.0026   2.0311   2.0663
     2.2422   2.2549   2.3591   2.3754   2.4316   2.4603   2.5469   2.5840
     2.6492   2.6944   2.7285   2.7431   2.8103   2.8414   2.8698   2.9022
     2.9329   2.9499   3.0055   3.0406   3.0712   3.1123   3.1439   3.1896
     3.1946   3.2493   3.2835   3.3235   3.3327   3.3758   3.4151   3.4659
     3.4804   3.5480   3.5773   3.6401   3.6666   3.7435   3.8032   3.8390
     3.8819   3.9588   4.1515   4.5026   4.5954   4.6150   4.7533   4.8209
     4.8874   4.9638   5.0090   5.1855   5.3007   5.3748   5.4106   5.4430
     5.5933   5.6155   5.6669   5.7158   5.8783   5.8956   5.9862   6.0051
     6.0670   6.1074   6.1687   6.2055   6.3122   6.3359   6.4117   6.4223
     6.5393   6.6139   6.7626   6.8072   7.1799   7.3540   7.4962   7.6198
     7.9397   8.0111   8.1045   8.3771   8.6083   8.7224   8.8051   9.0395
     9.1915   9.3283   9.4342

     the Fermi energy is    -0.2924 ev

!    total energy              =   -3021.14948956 Ry
     Harris-Foulkes estimate   =   -3021.14948975 Ry
     estimated scf accuracy    <       0.00000036 Ry

     The total energy is the sum of the following terms:

     one-electron contribution =  -40438.30247733 Ry
     hartree contribution      =   20290.49267878 Ry
     xc contribution           =    -553.19629585 Ry
     ewald contribution        =   17679.87641522 Ry
     smearing contrib. (-TS)   =      -0.01981039 Ry

     total magnetization       =     1.06 Bohr mag/cell
     absolute magnetization    =     1.23 Bohr mag/cell

     convergence has been achieved in  10 iterations

     Forces acting on atoms (Ry/au):

     negative rho (up, down):  1.188E-02 1.194E-02
     atom    1 type  1   force =     0.00018429   -0.00089932   -0.10469154
     atom    2 type  2   force =     0.00014368    0.00068165    0.04003101
     atom    3 type  1   force =     0.00074900   -0.00175187   -0.02053761
     atom    4 type  2   force =    -0.00326846    0.00312410   -0.00323770
     atom    5 type  1   force =     0.00034824    0.00006935    0.00033667
     atom    6 type  2   force =    -0.00013339   -0.00009633    0.00024111
     atom    7 type  1   force =    -0.00022920   -0.00003444   -0.00035233
     atom    8 type  2   force =    -0.00016125   -0.00014651   -0.00019535
     atom    9 type  1   force =    -0.00003405    0.00056627   -0.10482559
     atom   10 type  2   force =     0.00034884   -0.00021087    0.03600475
     atom   11 type  1   force =     0.00067897    0.00183643    0.00261821
     atom   12 type  2   force =    -0.00519585   -0.00266824   -0.00520235
     atom   13 type  1   force =     0.00041502    0.00008516   -0.00023528
     atom   14 type  2   force =     0.00012835   -0.00007947   -0.00006309
     atom   15 type  1   force =    -0.00004674   -0.00005229    0.00000000
     atom   16 type  2   force =    -0.00021731    0.00002270   -0.00035760
     atom   17 type  2   force =     0.00001040   -0.00001416    0.06659327
     atom   18 type  1   force =     0.00005837    0.00003193    0.13146600
     atom   19 type  2   force =     0.00017817   -0.00052886   -0.08521308
     atom   20 type  2   force =    -0.05792480    0.00014267   -0.03607281
     atom   21 type  2   force =     0.05781563   -0.00004776   -0.03603452
     atom   22 type  1   force =    -0.00042931    0.00074993    0.08017591
     atom   23 type  2   force =     0.00019767   -0.00004959    0.00003310
     atom   24 type  2   force =     0.00064189    0.00185885   -0.03467140
     atom   25 type  2   force =     0.00414073    0.00332715   -0.00510772
     atom   26 type  1   force =     0.00040698   -0.00004907    0.00008990
     atom   27 type  2   force =    -0.00009798   -0.00012522    0.00005901
     atom   28 type  2   force =     0.00005351   -0.00019614   -0.00002246
     atom   29 type  2   force =    -0.00000089   -0.00007422    0.00007568
     atom   30 type  1   force =    -0.00027017   -0.00016392    0.00005484
     atom   31 type  2   force =     0.00012260   -0.00007191   -0.00002854
     atom   32 type  2   force =    -0.00010148   -0.00001883    0.00004643
     atom   33 type  2   force =    -0.00016622    0.00004842    0.06632619
     atom   34 type  1   force =     0.00007820   -0.00003474    0.13124684
     atom   35 type  2   force =     0.00018932   -0.00013086   -0.08482463
     atom   36 type  2   force =    -0.05781865    0.00006464   -0.03568599
     atom   37 type  2   force =     0.05799018   -0.00017402   -0.03608595
     atom   38 type  1   force =    -0.00037619   -0.00020441    0.07984390
     atom   39 type  2   force =     0.00007662   -0.00026297   -0.00008865
     atom   40 type  2   force =     0.00049029    0.00124105   -0.03527474
     atom   41 type  2   force =     0.00588962   -0.00243488   -0.00722944
     atom   42 type  1   force =     0.00024242   -0.00006759    0.00002849
     atom   43 type  2   force =    -0.00019505   -0.00010072    0.00006069
     atom   44 type  2   force =     0.00000598   -0.00016024   -0.00002873
     atom   45 type  2   force =     0.00000246   -0.00016991    0.00005983
     atom   46 type  1   force =    -0.00017755   -0.00008269   -0.00001184
     atom   47 type  2   force =    -0.00001158   -0.00016037    0.00008074
     atom   48 type  2   force =    -0.00012649   -0.00002664    0.00029174
     atom   49 type  2   force =    -0.00054432   -0.00057905   -0.00037955
     atom   50 type  3   force =     0.01404443   -0.00837082    0.01105216
     atom   51 type  4   force =    -0.00218646    0.00029434   -0.00158693
     atom   52 type  4   force =    -0.01584682    0.00830192   -0.01209786
     atom   53 type  4   force =    -0.00028034   -0.00101354    0.00136035
     atom   54 type  4   force =     0.00020868   -0.00119407    0.00196647

     Total force =     0.343561     Total SCF correction =     0.001146
 !ASE

     Writing output data file calc.save

     General routines

     Parallel routines

   This run was terminated on:  14: 0: 4  26Feb2018

   JOB DONE.