     Program PWSCF v.5.1rc2 (svn rev. ) starts on 12Feb2018 at 17:12:43

     Current dimensions of program PWSCF are:
     Max number of different atomic species (ntypx) = 10
     Max number of k-points (npk) =  40000
     Max angular momentum in pseudopotentials (lmaxx) =  3

     IMPORTANT: XC functional enforced from input :
     Exchange-correlation      = BEEF ( 1  4 27 13 2)
     Any further DFT definition will be discarded
     Please, verify this is what you really want

     Subspace diagonalization in iterative solution of the eigenvalue problem:
     a serial algorithm will be used

     Generating pointlists ...
     new r_m :   0.4125 (alat units)  0.7795 (a.u.) for type    1
     new r_m :   0.3969 (alat units)  0.7500 (a.u.) for type    2
     new r_m :   0.4125 (alat units)  0.7795 (a.u.) for type    3
     new r_m :   0.3969 (alat units)  0.7500 (a.u.) for type    4

     bravais-lattice index     =            0
     lattice parameter (alat)  =       1.8897  a.u.
     unit-cell volume          =    7990.9933 (a.u.)^3
     number of atoms/cell      =           54
     number of atomic types    =            4
     number of electrons       =       398.00
     number of Kohn-Sham states=          299
     kinetic-energy cutoff     =      40.4243  Ry
     charge density cutoff     =     404.2426  Ry
     convergence threshold     =      7.3E-07
     mixing beta               =       0.1000
     number of iterations used =           10  plain     mixing
     Exchange-correlation      = BEEF ( 1  4 27 13 2)
     nstep                     =           50

     celldm(1)=   1.889726  celldm(2)=   0.000000  celldm(3)=   0.000000
     celldm(4)=   0.000000  celldm(5)=   0.000000  celldm(6)=   0.000000

     crystal axes: (cart. coord. in units of alat)
               a(1) = (   6.590708   0.000000   0.000000 )
               a(2) = (   0.000000   5.950229   0.000000 )
               a(3) = (   0.000000   0.000000  30.195235 )

     reciprocal axes: (cart. coord. in units 2 pi/alat)
               b(1) = (  0.151729  0.000000  0.000000 )
               b(2) = (  0.000000  0.168061  0.000000 )
               b(3) = (  0.000000  0.000000  0.033118 )

     PseudoPot. # 1 for Ti read from file:
     /home/alatimer/bin/psp/esp_psp_w_gbrvRu/Ti.UPF
     MD5 check sum: 8e4df49b7f0d34bbd5052bf3f5ea0213
     Pseudo is Ultrasoft, Zval = 12.0
     Generated by new atomic code, or converted to UPF format
     Using radial grid of  851 points,  6 beta functions with:
                l(1) =   0
                l(2) =   0
                l(3) =   1
                l(4) =   1
                l(5) =   2
                l(6) =   2
     Q(r) pseudized with  8 coefficients,  rinner =    1.000   1.000   1.000
                                                       1.000   1.000

     PseudoPot. # 2 for  O read from file:
     /home/alatimer/bin/psp/esp_psp_w_gbrvRu/O.UPF
     MD5 check sum: e057bbcf3229fb5d8c36c0c92f9568b4
     Pseudo is Ultrasoft + core correction, Zval =  6.0
     Generated using "atomic" code by A. Dal Corso  v.5.0.2 svn rev. 9415
     Using radial grid of 1095 points,  4 beta functions with:
                l(1) =   0
                l(2) =   0
                l(3) =   1
                l(4) =   1
     Q(r) pseudized with 0 coefficients

     PseudoPot. # 3 for  C read from file:
     /home/alatimer/bin/psp/esp_psp_w_gbrvRu/C.UPF
     MD5 check sum: ab446d787031eba755f1d5ee46644bb0
     Pseudo is Ultrasoft + core correction, Zval =  4.0
     Generated using "atomic" code by A. Dal Corso  v.5.0.2 svn rev. 9415
     Using radial grid of 1073 points,  4 beta functions with:
                l(1) =   0
                l(2) =   0
                l(3) =   1
                l(4) =   1
     Q(r) pseudized with 0 coefficients

     PseudoPot. # 4 for  H read from file:
     /home/alatimer/bin/psp/esp_psp_w_gbrvRu/H.UPF
     MD5 check sum: bd57da0722753ddfd9833a65b40bb853
     Pseudo is Ultrasoft, Zval =  1.0
     Generated using "atomic" code by A. Dal Corso  v.5.0.2 svn rev. 9415
     Using radial grid of  929 points,  2 beta functions with:
                l(1) =   0
                l(2) =   0
     Q(r) pseudized with 0 coefficients

     vdW kernel table read from file vdW_kernel_table
     MD5 check sum: 095c7af220d748ca6e76c0b4c6cfb241

     atomic species   valence    mass     pseudopotential
        Ti1           12.00    47.88000     Ti( 1.00)
        O1             6.00    15.99940      O( 1.00)
        C1             4.00    12.01100      C( 1.00)
        H1             1.00     1.00794      H( 1.00)

     Starting magnetic structure
     atomic species   magnetization
        Ti1          0.250
        O1           0.500
        C1           0.750
        H1           0.000

     No symmetry found

   Cartesian axes

     site n.     atom                  positions (alat units)
         1           Ti1 tau(   1) = (   1.6476770   0.7437786   2.6545865  )
         2           O1  tau(   2) = (   1.6476770   2.2313359   3.9361215  )
         3           Ti1 tau(   3) = (   1.6476770   2.2313359   5.9499405  )
         4           O1  tau(   4) = (   0.3661420   0.7437786   5.9499405  )
         5           Ti1 tau(   5) = (   1.7592931   0.7557636   9.1813031  )
         6           O1  tau(   6) = (   1.6162490   2.2572048  10.5951269  )
         7           Ti1 tau(   7) = (   1.5595004   2.2680265  12.4668274  )
         8           O1  tau(   8) = (   0.3709531   0.7738127  12.6996540  )
         9           Ti1 tau(   9) = (   1.6476770   3.7188931   2.6545865  )
        10           O1  tau(  10) = (   1.6476770   5.2064503   3.9361215  )
        11           Ti1 tau(  11) = (   1.6476770   5.2064503   5.9499405  )
        12           O1  tau(  12) = (   0.3661420   3.7188931   5.9499405  )
        13           Ti1 tau(  13) = (   1.7607536   3.7112867   9.1949733  )
        14           O1  tau(  14) = (   1.6133076   5.2250699  10.5465640  )
        15           Ti1 tau(  15) = (   1.6492307   5.2431137  12.3448001  )
        16           O1  tau(  16) = (   0.3719744   3.7598389  12.7007434  )
        17           O1  tau(  17) = (   1.6476770   2.2313359   1.3730516  )
        18           Ti1 tau(  18) = (   4.9430310   2.2313359   2.6545865  )
        19           O1  tau(  19) = (   4.9430310   2.2313359   4.6684056  )
        20           O1  tau(  20) = (   6.2245660   0.7437786   2.6545865  )
        21           O1  tau(  21) = (   3.6614961   0.7437786   2.6545865  )
        22           Ti1 tau(  22) = (   4.9430310   0.7437786   5.9499405  )
        23           O1  tau(  23) = (   1.6387103   2.2391978   8.0037664  )
        24           O1  tau(  24) = (   4.9430310   2.2313359   7.2314755  )
        25           O1  tau(  25) = (   2.9292120   0.7437786   5.9499405  )
        26           Ti1 tau(  26) = (   5.0158092   2.2383949   9.3973727  )
        27           O1  tau(  27) = (   4.9391445   2.2276729  11.2675731  )
        28           O1  tau(  28) = (   6.2094020   0.7514556   9.2742047  )
        29           O1  tau(  29) = (   3.6131301   0.7515640   9.2682932  )
        30           Ti1 tau(  30) = (   4.8940083   0.8207741  12.7348365  )
        31           O1  tau(  31) = (   4.8487174   2.2703822  13.8475395  )
        32           O1  tau(  32) = (   2.8766274   0.7418004  12.6316555  )
        33           O1  tau(  33) = (   1.6476770   5.2064503   1.3730516  )
        34           Ti1 tau(  34) = (   4.9430310   5.2064503   2.6545865  )
        35           O1  tau(  35) = (   4.9430310   5.2064503   4.6684056  )
        36           O1  tau(  36) = (   6.2245660   3.7188931   2.6545865  )
        37           O1  tau(  37) = (   3.6614961   3.7188931   2.6545865  )
        38           Ti1 tau(  38) = (   4.9430310   3.7188931   5.9499405  )
        39           O1  tau(  39) = (   1.6418458   5.2133935   8.0066417  )
        40           O1  tau(  40) = (   4.9430310   5.2064503   7.2314755  )
        41           O1  tau(  41) = (   2.9292120   3.7188931   5.9499405  )
        42           Ti1 tau(  42) = (   5.0218241   5.2139137   9.3870600  )
        43           O1  tau(  43) = (   4.9399496   5.2040061  11.2598200  )
        44           O1  tau(  44) = (   6.2073000   3.7245411   9.2731052  )
        45           O1  tau(  45) = (   3.6137513   3.7232133   9.2682466  )
        46           Ti1 tau(  46) = (   4.8936935   3.8094630  12.7397413  )
        47           O1  tau(  47) = (   4.9051259   5.2510468  13.8339921  )
        48           O1  tau(  48) = (   2.8743370   3.7938830  12.6403791  )
        49           C1  tau(  49) = (   1.0587210   2.2268971  15.9066084  )
        50           O1  tau(  50) = (   1.8917182   2.2355032  14.7678010  )
        51           H1  tau(  51) = (   0.0310076   2.2200215  15.5603933  )
        52           H1  tau(  52) = (   2.8355400   2.2288152  14.9543747  )
        53           H1  tau(  53) = (   1.2478062   1.3326534  16.5039879  )
        54           H1  tau(  54) = (   1.2341453   3.1195140  16.5098874  )

     number of k points=    40  Fermi-Dirac smearing, width (Ry)=  0.0073
                       cart. coord. in units 2pi/alat
        k(    1) = (   0.0000000   0.0000000   0.0000000), wk =   0.0277778
        k(    2) = (   0.0000000   0.0280101   0.0000000), wk =   0.0555556
        k(    3) = (   0.0000000   0.0560203   0.0000000), wk =   0.0555556
        k(    4) = (   0.0000000  -0.0840304   0.0000000), wk =   0.0277778
        k(    5) = (   0.0252881   0.0000000   0.0000000), wk =   0.0555556
        k(    6) = (   0.0252881   0.0280101   0.0000000), wk =   0.0555556
        k(    7) = (   0.0252881   0.0560203   0.0000000), wk =   0.0555556
        k(    8) = (   0.0252881  -0.0840304   0.0000000), wk =   0.0555556
        k(    9) = (   0.0505763   0.0000000   0.0000000), wk =   0.0555556
        k(   10) = (   0.0505763   0.0280101   0.0000000), wk =   0.0555556
        k(   11) = (   0.0505763   0.0560203   0.0000000), wk =   0.0555556
        k(   12) = (   0.0505763  -0.0840304   0.0000000), wk =   0.0555556
        k(   13) = (  -0.0758644   0.0000000   0.0000000), wk =   0.0277778
        k(   14) = (  -0.0758644   0.0280101   0.0000000), wk =   0.0555556
        k(   15) = (  -0.0758644   0.0560203   0.0000000), wk =   0.0555556
        k(   16) = (  -0.0758644  -0.0840304   0.0000000), wk =   0.0277778
        k(   17) = (  -0.0252881   0.0280101   0.0000000), wk =   0.0555556
        k(   18) = (  -0.0252881   0.0560203   0.0000000), wk =   0.0555556
        k(   19) = (  -0.0505763   0.0280101   0.0000000), wk =   0.0555556
        k(   20) = (  -0.0505763   0.0560203   0.0000000), wk =   0.0555556
        k(   21) = (   0.0000000   0.0000000   0.0000000), wk =   0.0277778
        k(   22) = (   0.0000000   0.0280101   0.0000000), wk =   0.0555556
        k(   23) = (   0.0000000   0.0560203   0.0000000), wk =   0.0555556
        k(   24) = (   0.0000000  -0.0840304   0.0000000), wk =   0.0277778
        k(   25) = (   0.0252881   0.0000000   0.0000000), wk =   0.0555556
        k(   26) = (   0.0252881   0.0280101   0.0000000), wk =   0.0555556
[...]
     atom:   44    charge:    1.9245    magn:   -0.0001    constr:    0.0000
     atom:   45    charge:    1.9196    magn:   -0.0001    constr:    0.0000
     atom:   46    charge:    3.1162    magn:    0.0000    constr:    0.0000
     atom:   47    charge:    1.9179    magn:   -0.0000    constr:    0.0000
     atom:   48    charge:    1.9163    magn:   -0.0001    constr:    0.0000
     atom:   49    charge:    0.6607    magn:   -0.0001    constr:    0.0000
     atom:   50    charge:    1.9297    magn:   -0.0001    constr:    0.0000
     atom:   51    charge:    0.3963    magn:    0.0000    constr:    0.0000
     atom:   52    charge:    0.3952    magn:    0.0000    constr:    0.0000
     atom:   53    charge:    0.3978    magn:    0.0000    constr:    0.0000
     atom:   54    charge:    0.3984    magn:    0.0000    constr:    0.0000

     total energy              =   -3021.44795984 Ry
     Harris-Foulkes estimate   =   -3021.46533683 Ry
     estimated scf accuracy    <       0.11048387 Ry

     total magnetization       =     0.00 Bohr mag/cell
     absolute magnetization    =     0.01 Bohr mag/cell

[...]

     total energy              =   -3021.41890002 Ry
     Harris-Foulkes estimate   =   -3021.41889965 Ry
     estimated scf accuracy    <       0.00000098 Ry

[...]

     iteration # 11     ecut=    40.42 Ry     beta=0.10
     Davidson diagonalization with overlap
     ethr =  2.47E-10,  avg # of iterations =  3.7

     negative rho (up, down):  1.208E-02 1.208E-02

     Magnetic moment per site:
     atom:    1    charge:    3.1250    magn:   -0.0000    constr:    0.0000
     atom:    2    charge:    1.9174    magn:    0.0000    constr:    0.0000
     atom:    3    charge:    3.1198    magn:    0.0000    constr:    0.0000
     atom:    4    charge:    1.9231    magn:   -0.0000    constr:    0.0000
     atom:    5    charge:    3.1166    magn:    0.0000    constr:    0.0000
     atom:    6    charge:    1.9204    magn:   -0.0000    constr:    0.0000
     atom:    7    charge:    3.1157    magn:    0.0000    constr:    0.0000
     atom:    8    charge:    1.9180    magn:   -0.0000    constr:    0.0000
     atom:    9    charge:    3.1250    magn:   -0.0000    constr:    0.0000
     atom:   10    charge:    1.9174    magn:    0.0000    constr:    0.0000
     atom:   11    charge:    3.1197    magn:    0.0000    constr:    0.0000
     atom:   12    charge:    1.9231    magn:   -0.0000    constr:    0.0000
     atom:   13    charge:    3.1158    magn:    0.0000    constr:    0.0000
     atom:   14    charge:    1.9318    magn:   -0.0000    constr:    0.0000
     atom:   15    charge:    3.1188    magn:    0.0000    constr:    0.0000
     atom:   16    charge:    1.9176    magn:   -0.0000    constr:    0.0000
     atom:   17    charge:    1.8905    magn:    0.0000    constr:    0.0000
     atom:   18    charge:    3.1239    magn:   -0.0000    constr:    0.0000
     atom:   19    charge:    1.9129    magn:   -0.0000    constr:    0.0000
     atom:   20    charge:    1.9198    magn:    0.0000    constr:    0.0000
     atom:   21    charge:    1.9198    magn:    0.0000    constr:    0.0000
     atom:   22    charge:    3.1196    magn:    0.0000    constr:    0.0000
     atom:   23    charge:    1.9295    magn:   -0.0000    constr:    0.0000
     atom:   24    charge:    1.9118    magn:   -0.0000    constr:    0.0000
     atom:   25    charge:    1.9232    magn:   -0.0000    constr:    0.0000
     atom:   26    charge:    3.1145    magn:    0.0000    constr:    0.0000
     atom:   27    charge:    1.9121    magn:   -0.0000    constr:    0.0000
     atom:   28    charge:    1.9243    magn:   -0.0000    constr:    0.0000
     atom:   29    charge:    1.9202    magn:   -0.0000    constr:    0.0000
     atom:   30    charge:    3.1167    magn:    0.0000    constr:    0.0000
     atom:   31    charge:    1.9177    magn:   -0.0000    constr:    0.0000
     atom:   32    charge:    1.9167    magn:   -0.0000    constr:    0.0000
     atom:   33    charge:    1.8905    magn:    0.0000    constr:    0.0000
     atom:   34    charge:    3.1239    magn:   -0.0000    constr:    0.0000
     atom:   35    charge:    1.9129    magn:   -0.0000    constr:    0.0000
     atom:   36    charge:    1.9198    magn:    0.0000    constr:    0.0000
     atom:   37    charge:    1.9198    magn:    0.0000    constr:    0.0000
     atom:   38    charge:    3.1196    magn:    0.0000    constr:    0.0000
     atom:   39    charge:    1.9275    magn:   -0.0000    constr:    0.0000
     atom:   40    charge:    1.9122    magn:   -0.0000    constr:    0.0000
     atom:   41    charge:    1.9232    magn:   -0.0000    constr:    0.0000
     atom:   42    charge:    3.1141    magn:    0.0000    constr:    0.0000
     atom:   43    charge:    1.9143    magn:   -0.0000    constr:    0.0000
     atom:   44    charge:    1.9245    magn:   -0.0000    constr:    0.0000
     atom:   45    charge:    1.9196    magn:   -0.0000    constr:    0.0000
     atom:   46    charge:    3.1165    magn:    0.0000    constr:    0.0000
     atom:   47    charge:    1.9169    magn:   -0.0000    constr:    0.0000
     atom:   48    charge:    1.9166    magn:   -0.0000    constr:    0.0000
     atom:   49    charge:    0.6607    magn:   -0.0000    constr:    0.0000
     atom:   50    charge:    1.9420    magn:   -0.0000    constr:    0.0000
     atom:   51    charge:    0.3972    magn:    0.0000    constr:    0.0000
     atom:   52    charge:    0.3994    magn:    0.0000    constr:    0.0000
     atom:   53    charge:    0.3986    magn:    0.0000    constr:    0.0000
     atom:   54    charge:    0.3993    magn:    0.0000    constr:    0.0000

     End of self-consistent calculation

 ------ SPIN UP ------------

          k = 0.0000 0.0000 0.0000 ( 34665 PWs)   bands (ev):

   -57.7212 -57.6862 -57.3455 -57.3092 -57.2657 -57.1339 -57.0974 -57.0965
   -57.0810 -57.0618 -57.0161 -56.9806 -56.7539 -56.7164 -56.1714 -56.1361
   -34.1572 -34.0034 -33.9749 -33.9222 -33.8979 -33.8279 -33.7674 -33.6848
   -33.6466 -33.6293 -33.5918 -33.5683 -33.5451 -33.5352 -33.5177 -33.5172
   -33.4968 -33.4823 -33.4610 -33.4229 -33.3483 -33.3162 -33.2959 -33.2866
   -33.2849 -33.2805 -33.2672 -33.2662 -33.2612 -33.2600 -33.2537 -33.2366
   -33.2065 -33.2059 -33.1988 -33.1666 -33.1444 -33.0200 -33.0028 -32.9817
   -32.9314 -32.8281 -32.5892 -32.5237 -32.4976 -32.3934 -32.3017 -32.1934
   -20.4316 -18.0398 -17.8645 -17.5831 -17.4892 -17.3997 -17.2798 -17.1031
   -17.0884 -17.0016 -16.9622 -16.9063 -16.8110 -16.8065 -16.7582 -16.7320
   -16.7285 -16.6894 -16.6340 -16.6332 -16.5603 -16.4424 -16.4273 -16.4211
   -16.3508 -16.2921 -16.2186 -16.1910 -16.1732 -16.0020 -15.9518 -14.7553
   -14.6716 -11.4767  -7.2986  -5.5008  -5.4186  -5.3473  -5.2323  -5.2289
    -5.1718  -5.1552  -4.8632  -4.8450  -4.4959  -4.4699  -4.3847  -4.3819
    -4.3489  -4.2553  -4.1149  -4.0853  -4.0755  -4.0420  -4.0273  -4.0165
    -3.9828  -3.9804  -3.9745  -3.8645  -3.8145  -3.7930  -3.7617  -3.7409
    -3.6573  -3.6428  -3.6150  -3.6036  -3.5437  -3.5310  -3.4335  -3.4164
    -3.3875  -3.2738  -3.2448  -3.1496  -3.0380  -2.9581  -2.9009  -2.8387
    -2.7142  -2.6350  -2.6141  -2.6026  -2.5982  -2.5957  -2.4536  -2.4396
    -2.3601  -2.2928  -2.2699  -2.2287  -2.2247  -2.1809  -2.1649  -2.1185
    -2.0729  -2.0521  -2.0473  -1.9011  -1.8874  -1.7698  -1.7614  -1.6470
    -1.5693  -1.5629  -1.5150  -1.5066  -1.4864  -1.4479  -1.3394  -1.3339
    -1.3259  -1.3053  -1.2680  -1.1615  -1.1107  -1.0939  -1.0734  -1.0411
    -0.9793  -0.9403  -0.8327  -0.7828  -0.6346  -0.6117  -0.5919  -0.5051
    -0.4021  -0.2633  -0.1069  -0.0518   0.1093   0.2266   0.2402   1.6203
     1.6524   1.9614   1.9797   2.0381   2.0661   2.1810   2.2166   2.2604
     2.4021   2.4718   2.5014   2.5085   2.5180   2.6054   2.6236   2.6334
     2.6902   2.7745   2.8012   2.8124   2.8850   2.9717   3.0073   3.0692
     3.0830   3.0857   3.1370   3.1779   3.1822   3.2046   3.2146   3.2263
     3.2384   3.2626   3.3746   3.4096   3.4310   3.4411   3.5062   3.5591
     3.6280   3.6690   3.7815   3.9549   3.9920   4.0678   4.1579   4.2936
     4.3139   4.3697   4.5754   4.6034   4.7939   4.8143   5.0629   5.1402
     5.2229   5.3084   5.4673   5.4934   5.5400   5.5667   5.6584   5.6831
     5.7758   5.8400   5.8526   5.8629   5.9270   6.0259   6.0431   6.0681
     6.1225   6.2049   6.2136   6.2710   6.3541   6.5725   6.6129   6.7592
     6.8256   7.0037   7.0518   7.1724   7.2804   7.6151   7.9151   8.2413
     8.3715   8.7247   8.7767   8.8894   8.9331   9.0124   9.2122   9.3195
     9.3375   9.3975   9.5471

[...]

          k =-0.0759 0.0000 0.0000 ( 34758 PWs)   bands (ev):

[...]

 ------ SPIN DOWN ----------

[...]

          k = 0.0506-0.0840 0.0000 ( 34628 PWs)   bands (ev):

[...]

          k =-0.0506 0.0560 0.0000 ( 34596 PWs)   bands (ev):

   -57.7125 -57.6951 -57.3366 -57.3182 -57.2644 -57.1253 -57.1055 -57.0882
   -57.0823 -57.0706 -57.0073 -56.9895 -56.7449 -56.7255 -56.1628 -56.1451
   -34.0629 -33.9962 -33.9819 -33.8973 -33.8677 -33.8512 -33.8011 -33.6240
   -33.6062 -33.6001 -33.5635 -33.5489 -33.5425 -33.5356 -33.5082 -33.4974
   -33.4854 -33.4560 -33.4301 -33.3775 -33.3479 -33.3419 -33.3251 -33.3228
   -33.3106 -33.3006 -33.2917 -33.2904 -33.2794 -33.2776 -33.2716 -33.2636
   -33.2364 -33.2266 -33.1964 -33.1897 -33.1493 -33.0110 -33.0019 -32.9860
   -32.9494 -32.9256 -32.5191 -32.5037 -32.4927 -32.3709 -32.3250 -32.2950
   -20.4308 -17.7337 -17.5232 -17.3182 -17.2657 -17.2245 -17.1971 -17.1882
   -17.1166 -17.0598 -17.0316 -16.9385 -16.8823 -16.8741 -16.8697 -16.8336
   -16.8002 -16.7491 -16.6887 -16.6506 -16.6407 -16.5748 -16.5365 -16.4257
   -16.3685 -16.2865 -16.2500 -16.2173 -16.1793 -16.1344 -16.0604 -14.7814
   -14.7457 -11.4717  -7.2893  -5.4605  -5.2417  -5.0514  -4.6816  -4.6407
    -4.5419  -4.5260  -4.5112  -4.4832  -4.4602  -4.3935  -4.3494  -4.3260
    -4.2510  -4.2306  -4.1689  -4.1565  -4.1087  -4.0924  -4.0704  -4.0623
    -4.0400  -4.0228  -3.9931  -3.9402  -3.9194  -3.9124  -3.8473  -3.8126
    -3.7555  -3.6829  -3.6528  -3.5463  -3.5083  -3.3733  -3.3514  -3.2871
    -3.2753  -3.2670  -3.1087  -3.0096  -2.9508  -2.9207  -2.8716  -2.8433
    -2.7804  -2.7485  -2.7077  -2.6333  -2.6139  -2.5921  -2.5534  -2.5138
    -2.4519  -2.4275  -2.3899  -2.3533  -2.3406  -2.3232  -2.2794  -2.2034
    -2.1760  -2.1448  -2.1362  -2.1008  -2.0726  -2.0282  -2.0096  -1.9263
    -1.9164  -1.8765  -1.8569  -1.7473  -1.6606  -1.6313  -1.5969  -1.5025
    -1.4285  -1.3979  -1.3311  -1.2499  -1.2248  -1.1266  -1.0871  -1.0371
    -1.0180  -0.9591  -0.8723  -0.8428  -0.7936  -0.7808  -0.7161  -0.6806
    -0.6746  -0.5424  -0.3493   0.0566   0.0908   0.1088   0.1722   1.8444
     2.0545   2.1363   2.1726   2.1969   2.2210   2.2732   2.3211   2.3669
     2.3807   2.5139   2.5445   2.5541   2.5840   2.6020   2.6563   2.7301
     2.7588   2.7796   2.8140   2.8549   2.9382   2.9772   3.0037   3.0357
     3.0719   3.1110   3.1427   3.2307   3.3118   3.3433   3.3726   3.4156
     3.4529   3.4747   3.4969   3.5166   3.5910   3.6232   3.6855   3.7219
     3.7557   3.8277   3.8558   3.8970   3.9030   3.9294   4.0898   4.1526
     4.2674   4.4454   4.6932   4.7841   4.7906   4.8724   4.9146   5.0680
     5.1407   5.2116   5.2500   5.3383   5.3560   5.4093   5.4712   5.6009
     5.7580   5.8145   5.8581   5.9310   6.0448   6.1030   6.2003   6.2408
     6.2685   6.3445   6.3920   6.4283   6.5064   6.5611   6.6363   6.6966
     6.7115   6.8050   6.8789   6.9645   7.0723   7.3948   7.4613   7.6117
     7.7630   7.9549   8.0938   8.4152   8.5834   8.6400   8.7951   9.0345
     9.2416   9.3316   9.4451

     the Fermi energy is     0.9750 ev

!    total energy              =   -3021.41890262 Ry
     Harris-Foulkes estimate   =   -3021.41890015 Ry
     estimated scf accuracy    <       0.00000034 Ry

     The total energy is the sum of the following terms:

     one-electron contribution =  -41229.62256365 Ry
     hartree contribution      =   20688.71963658 Ry
     xc contribution           =    -553.71388621 Ry
     ewald contribution        =   18073.19812286 Ry
     smearing contrib. (-TS)   =      -0.00021220 Ry

     total magnetization       =     0.00 Bohr mag/cell
     absolute magnetization    =     0.00 Bohr mag/cell

     convergence has been achieved in  11 iterations

     Forces acting on atoms (Ry/au):

     negative rho (up, down):  1.208E-02 1.208E-02
     atom    1 type  1   force =     0.00002044   -0.00035837   -0.13395331
     atom    2 type  2   force =    -0.00004951    0.00004075    0.07225636
     atom    3 type  1   force =    -0.00132384    0.00030880   -0.06116772
     atom    4 type  2   force =     0.00291389    0.00049626    0.00643282
     atom    5 type  1   force =     0.00025698    0.00169772    0.00321800
     atom    6 type  2   force =    -0.00005331    0.00002870   -0.00202080
     atom    7 type  1   force =    -0.00033288   -0.00081283    0.00542026
     atom    8 type  2   force =     0.00144792    0.00014353   -0.00044944
     atom    9 type  1   force =    -0.00002500    0.00000725   -0.13368889
     atom   10 type  2   force =    -0.00005175    0.00006285    0.07143368
     atom   11 type  1   force =    -0.00130046   -0.00023544   -0.05608661
     atom   12 type  2   force =     0.00300327   -0.00007444    0.00615062
     atom   13 type  1   force =     0.00027173   -0.00131661    0.00312987
     atom   14 type  2   force =    -0.00110679   -0.00038644   -0.00270997
     atom   15 type  1   force =    -0.00080519    0.00022660    0.00470631
     atom   16 type  2   force =     0.00105342   -0.00045269    0.00008014
     atom   17 type  2   force =    -0.00004548   -0.00006163    0.07955977
     atom   18 type  1   force =     0.00010260   -0.00017081    0.11894123
     atom   19 type  2   force =    -0.00010248   -0.00018020   -0.06655702
     atom   20 type  2   force =    -0.06321415    0.00013324   -0.03227838
     atom   21 type  2   force =     0.06321558    0.00001005   -0.03243053
     atom   22 type  1   force =     0.00072615    0.00108764    0.05960029
     atom   23 type  2   force =    -0.00021082    0.00007575   -0.00152851
     atom   24 type  2   force =    -0.00146702   -0.00000710   -0.02316392
     atom   25 type  2   force =    -0.00316307    0.00061434    0.00790664
     atom   26 type  1   force =     0.00073796    0.00029829    0.00459666
     atom   27 type  2   force =     0.00053433    0.00058129   -0.00398302
     atom   28 type  2   force =     0.00021714   -0.00008745   -0.00117314
     atom   29 type  2   force =     0.00006549   -0.00034308   -0.00058650
     atom   30 type  1   force =     0.00049938   -0.00068489    0.00446341
     atom   31 type  2   force =    -0.00023077    0.00001701   -0.00318869
     atom   32 type  2   force =    -0.00058301    0.00065456   -0.00053528
     atom   33 type  2   force =    -0.00008321    0.00005368    0.07911155
     atom   34 type  1   force =     0.00007946   -0.00022863    0.11885050
     atom   35 type  2   force =    -0.00028122   -0.00004578   -0.06632455
     atom   36 type  2   force =    -0.06318984   -0.00003896   -0.03237421
     atom   37 type  2   force =     0.06333721   -0.00018519   -0.03250262
     atom   38 type  1   force =     0.00066576   -0.00099650    0.05982822
     atom   39 type  2   force =    -0.00045371    0.00009330   -0.00229580
     atom   40 type  2   force =    -0.00122079    0.00029859   -0.02206832
     atom   41 type  2   force =    -0.00318068   -0.00016915    0.00792389
     atom   42 type  1   force =     0.00055928    0.00005999    0.00365380
     atom   43 type  2   force =     0.00064257    0.00024789   -0.00313614
     atom   44 type  2   force =     0.00030462    0.00010623   -0.00108810
     atom   45 type  2   force =     0.00002546    0.00030238   -0.00060616
     atom   46 type  1   force =     0.00072677    0.00026462    0.00456339
     atom   47 type  2   force =     0.00004769   -0.00038346   -0.00178664
     atom   48 type  2   force =    -0.00048469   -0.00061553   -0.00024068
     atom   49 type  3   force =    -0.00538080   -0.00085696    0.02337679
     atom   50 type  2   force =     0.00203111    0.00023710   -0.04211216
     atom   51 type  4   force =    -0.00003651    0.00004546   -0.00066246
     atom   52 type  4   force =     0.00984791    0.00019959    0.00970884
     atom   53 type  4   force =    -0.00259809    0.00083940    0.00283073
     atom   54 type  4   force =    -0.00235904   -0.00054068    0.00295584

     Total force =     0.366226     Total SCF correction =     0.001751
 !ASE

     Writing output data file calc.save

     General routines

     Parallel routines

   This run was terminated on:  18: 4:34  12Feb2018

   JOB DONE.