     Program PWSCF v.5.1rc2 (svn rev. ) starts on 10Feb2018 at 15: 0:34

     Current dimensions of program PWSCF are:
     Max number of different atomic species (ntypx) = 10
     Max number of k-points (npk) =  40000
     Max angular momentum in pseudopotentials (lmaxx) =  3

     IMPORTANT: XC functional enforced from input :
     Exchange-correlation      = BEEF ( 1  4 27 13 2)
     Any further DFT definition will be discarded
     Please, verify this is what you really want

     Subspace diagonalization in iterative solution of the eigenvalue problem:
     a serial algorithm will be used

     Generating pointlists ...
     new r_m :   0.4125 (alat units)  0.7795 (a.u.) for type    1
     new r_m :   0.4125 (alat units)  0.7795 (a.u.) for type    2

     bravais-lattice index     =            0
     lattice parameter (alat)  =       1.8897  a.u.
     unit-cell volume          =    7990.9933 (a.u.)^3
     number of atoms/cell      =           49
     number of atomic types    =            2
     number of electrons       =       390.00
     number of Kohn-Sham states=          295
     kinetic-energy cutoff     =      40.4243  Ry
     charge density cutoff     =     404.2426  Ry
     convergence threshold     =      7.3E-07
     mixing beta               =       0.1000
     number of iterations used =           10  plain     mixing
     Exchange-correlation      = BEEF ( 1  4 27 13 2)
     nstep                     =           50

     celldm(1)=   1.889726  celldm(2)=   0.000000  celldm(3)=   0.000000
     celldm(4)=   0.000000  celldm(5)=   0.000000  celldm(6)=   0.000000

     crystal axes: (cart. coord. in units of alat)
               a(1) = (   6.590708   0.000000   0.000000 )
               a(2) = (   0.000000   5.950229   0.000000 )
               a(3) = (   0.000000   0.000000  30.195235 )

     reciprocal axes: (cart. coord. in units 2 pi/alat)
               b(1) = (  0.151729  0.000000  0.000000 )
               b(2) = (  0.000000  0.168061  0.000000 )
               b(3) = (  0.000000  0.000000  0.033118 )

     PseudoPot. # 1 for Ti read from file:
     /home/alatimer/bin/psp/esp_psp_w_gbrvRu/Ti.UPF
     MD5 check sum: 8e4df49b7f0d34bbd5052bf3f5ea0213
     Pseudo is Ultrasoft, Zval = 12.0
     Generated by new atomic code, or converted to UPF format
     Using radial grid of  851 points,  6 beta functions with:
                l(1) =   0
                l(2) =   0
                l(3) =   1
                l(4) =   1
                l(5) =   2
                l(6) =   2
     Q(r) pseudized with  8 coefficients,  rinner =    1.000   1.000   1.000
                                                       1.000   1.000

     PseudoPot. # 2 for  O read from file:
     /home/alatimer/bin/psp/esp_psp_w_gbrvRu/O.UPF
     MD5 check sum: e057bbcf3229fb5d8c36c0c92f9568b4
     Pseudo is Ultrasoft + core correction, Zval =  6.0
     Generated using "atomic" code by A. Dal Corso  v.5.0.2 svn rev. 9415
     Using radial grid of 1095 points,  4 beta functions with:
                l(1) =   0
                l(2) =   0
                l(3) =   1
                l(4) =   1
     Q(r) pseudized with 0 coefficients

     vdW kernel table read from file vdW_kernel_table
     MD5 check sum: 095c7af220d748ca6e76c0b4c6cfb241

     atomic species   valence    mass     pseudopotential
        Ti1           12.00    47.88000     Ti( 1.00)
        O1             6.00    15.99940      O( 1.00)

     Starting magnetic structure
     atomic species   magnetization
        Ti1          0.250
        O1           0.500

     No symmetry found

   Cartesian axes

     site n.     atom                  positions (alat units)
         1           Ti1 tau(   1) = (   1.6476770   0.7437786   2.6545865  )
         2           O1  tau(   2) = (   1.6476770   2.2313359   3.9361215  )
         3           Ti1 tau(   3) = (   1.6476770   2.2313359   5.9499405  )
         4           O1  tau(   4) = (   0.3661420   0.7437786   5.9499405  )
         5           Ti1 tau(   5) = (   1.5277661   0.7316361   9.1979924  )
         6           O1  tau(   6) = (   1.6632133   2.1793878  10.6093433  )
         7           Ti1 tau(   7) = (   1.6165400   2.1742892  12.4450098  )
         8           O1  tau(   8) = (   0.4211133   0.7189415  12.7146628  )
         9           Ti1 tau(   9) = (   1.6476770   3.7188931   2.6545865  )
        10           O1  tau(  10) = (   1.6476770   5.2064503   3.9361215  )
        11           Ti1 tau(  11) = (   1.6476770   5.2064503   5.9499405  )
        12           O1  tau(  12) = (   0.3661420   3.7188931   5.9499405  )
        13           Ti1 tau(  13) = (   1.5318737   3.7073984   9.2114718  )
        14           O1  tau(  14) = (   1.6603548   5.2054729  10.6082275  )
        15           Ti1 tau(  15) = (   1.6160620   5.2125286  12.4458513  )
        16           O1  tau(  16) = (   0.3672395   3.6890226  12.4512313  )
        17           O1  tau(  17) = (   1.6476770   2.2313359   1.3730516  )
        18           Ti1 tau(  18) = (   4.9430310   2.2313359   2.6545865  )
        19           O1  tau(  19) = (   4.9430310   2.2313359   4.6684056  )
        20           O1  tau(  20) = (   6.2245660   0.7437786   2.6545865  )
        21           O1  tau(  21) = (   3.6614961   0.7437786   2.6545865  )
        22           Ti1 tau(  22) = (   4.9430310   0.7437786   5.9499405  )
        23           O1  tau(  23) = (   1.6494130   2.2266810   8.0229920  )
        24           O1  tau(  24) = (   4.9430310   2.2313359   7.2314755  )
        25           O1  tau(  25) = (   2.9292120   0.7437786   5.9499405  )
        26           Ti1 tau(  26) = (   4.8570045   2.2038353   9.3960648  )
        27           O1  tau(  27) = (   4.9365002   2.1563787  11.2526517  )
        28           O1  tau(  28) = (   6.2661622   0.7265345   9.2570196  )
        29           O1  tau(  29) = (   3.6607207   0.7252434   9.2585875  )
        30           Ti1 tau(  30) = (   4.8804456   0.7009689  12.7500804  )
        31           O1  tau(  31) = (   4.9885443   2.2055297  13.8060867  )
        32           O1  tau(  32) = (   2.8787315   0.7196740  12.7638696  )
        33           O1  tau(  33) = (   1.6476770   5.2064503   1.3730516  )
        34           Ti1 tau(  34) = (   4.9430310   5.2064503   2.6545865  )
        35           O1  tau(  35) = (   4.9430310   5.2064503   4.6684056  )
        36           O1  tau(  36) = (   6.2245660   3.7188931   2.6545865  )
        37           O1  tau(  37) = (   3.6614961   3.7188931   2.6545865  )
        38           Ti1 tau(  38) = (   4.9430310   3.7188931   5.9499405  )
        39           O1  tau(  39) = (   1.6492404   5.1840375   8.0235373  )
        40           O1  tau(  40) = (   4.9430310   5.2064503   7.2314755  )
        41           O1  tau(  41) = (   2.9292120   3.7188931   5.9499405  )
        42           Ti1 tau(  42) = (   4.8583452   5.1875290   9.3946917  )
        43           O1  tau(  43) = (   4.9366536   5.2195535  11.2514306  )
        44           O1  tau(  44) = (   6.2660656   3.7009687   9.2894568  )
        45           O1  tau(  45) = (   3.6605616   3.6984666   9.2954459  )
        46           Ti1 tau(  46) = (   5.1078939   3.6751672  12.7268755  )
        47           O1  tau(  47) = (   4.9880347   5.1576104  13.8055399  )
        48           O1  tau(  48) = (   3.0285069   3.6936269  12.4216869  )
        49           O1  tau(  49) = (   2.3858682   3.6994311  13.7464468  )

     number of k points=    40  Fermi-Dirac smearing, width (Ry)=  0.0073
                       cart. coord. in units 2pi/alat
        k(    1) = (   0.0000000   0.0000000   0.0000000), wk =   0.0277778
        k(    2) = (   0.0000000   0.0280101   0.0000000), wk =   0.0555556
        k(    3) = (   0.0000000   0.0560203   0.0000000), wk =   0.0555556
        k(    4) = (   0.0000000  -0.0840304   0.0000000), wk =   0.0277778
        k(    5) = (   0.0252881   0.0000000   0.0000000), wk =   0.0555556
        k(    6) = (   0.0252881   0.0280101   0.0000000), wk =   0.0555556
        k(    7) = (   0.0252881   0.0560203   0.0000000), wk =   0.0555556
        k(    8) = (   0.0252881  -0.0840304   0.0000000), wk =   0.0555556
        k(    9) = (   0.0505763   0.0000000   0.0000000), wk =   0.0555556
        k(   10) = (   0.0505763   0.0280101   0.0000000), wk =   0.0555556
        k(   11) = (   0.0505763   0.0560203   0.0000000), wk =   0.0555556
        k(   12) = (   0.0505763  -0.0840304   0.0000000), wk =   0.0555556
        k(   13) = (  -0.0758644   0.0000000   0.0000000), wk =   0.0277778
        k(   14) = (  -0.0758644   0.0280101   0.0000000), wk =   0.0555556
        k(   15) = (  -0.0758644   0.0560203   0.0000000), wk =   0.0555556
        k(   16) = (  -0.0758644  -0.0840304   0.0000000), wk =   0.0277778
        k(   17) = (  -0.0252881   0.0280101   0.0000000), wk =   0.0555556
        k(   18) = (  -0.0252881   0.0560203   0.0000000), wk =   0.0555556
        k(   19) = (  -0.0505763   0.0280101   0.0000000), wk =   0.0555556
        k(   20) = (  -0.0505763   0.0560203   0.0000000), wk =   0.0555556
        k(   21) = (   0.0000000   0.0000000   0.0000000), wk =   0.0277778
        k(   22) = (   0.0000000   0.0280101   0.0000000), wk =   0.0555556
        k(   23) = (   0.0000000   0.0560203   0.0000000), wk =   0.0555556
        k(   24) = (   0.0000000  -0.0840304   0.0000000), wk =   0.0277778
        k(   25) = (   0.0252881   0.0000000   0.0000000), wk =   0.0555556
        k(   26) = (   0.0252881   0.0280101   0.0000000), wk =   0.0555556
        k(   27) = (   0.0252881   0.0560203   0.0000000), wk =   0.0555556
        k(   28) = (   0.0252881  -0.0840304   0.0000000), wk =   0.0555556
        k(   29) = (   0.0505763   0.0000000   0.0000000), wk =   0.0555556
        k(   30) = (   0.0505763   0.0280101   0.0000000), wk =   0.0555556
        k(   31) = (   0.0505763   0.0560203   0.0000000), wk =   0.0555556
        k(   32) = (   0.0505763  -0.0840304   0.0000000), wk =   0.0555556
        k(   33) = (  -0.0758644   0.0000000   0.0000000), wk =   0.0277778
        k(   34) = (  -0.0758644   0.0280101   0.0000000), wk =   0.0555556
        k(   35) = (  -0.0758644   0.0560203   0.0000000), wk =   0.0555556
        k(   36) = (  -0.0758644  -0.0840304   0.0000000), wk =   0.0277778
        k(   37) = (  -0.0252881   0.0280101   0.0000000), wk =   0.0555556
        k(   38) = (  -0.0252881   0.0560203   0.0000000), wk =   0.0555556
        k(   39) = (  -0.0505763   0.0280101   0.0000000), wk =   0.0555556
        k(   40) = (  -0.0505763   0.0560203   0.0000000), wk =   0.0555556

     Largest allocated arrays     est. size (Mb)     dimensions
     Largest temporary arrays     est. size (Mb)     dimensions

     Check: negative/imaginary core charge=   -0.000049    0.000000

     Initial potential from superposition of free atoms
     Check: negative starting charge=(component1):   -0.018206
     Check: negative starting charge=(component2):   -0.011117

     starting charge  373.99925, renormalised to  390.00000

     negative rho (up, down):  1.898E-02 1.159E-02

     *
[...]
     atom:   29    charge:    2.1076    magn:    0.9514    constr:    0.0000
     atom:   30    charge:    3.1863    magn:    0.7288    constr:    0.0000
     atom:   31    charge:    2.0590    magn:    1.0004    constr:    0.0000
     atom:   32    charge:    2.0872    magn:    0.9706    constr:    0.0000
     atom:   33    charge:    2.1026    magn:    0.9539    constr:    0.0000
     atom:   34    charge:    3.2422    magn:    0.7756    constr:    0.0000
     atom:   35    charge:    2.1130    magn:    0.9533    constr:    0.0000
     atom:   36    charge:    2.1113    magn:    0.9539    constr:    0.0000
     atom:   37    charge:    2.1113    magn:    0.9539    constr:    0.0000
     atom:   38    charge:    3.2095    magn:    0.7417    constr:    0.0000
     atom:   39    charge:    2.1108    magn:    0.9507    constr:    0.0000
     atom:   40    charge:    2.1063    magn:    0.9522    constr:    0.0000
     atom:   41    charge:    2.1103    magn:    0.9519    constr:    0.0000
     atom:   42    charge:    3.1876    magn:    0.7250    constr:    0.0000
     atom:   43    charge:    2.0901    magn:    0.9652    constr:    0.0000
     atom:   44    charge:    2.1069    magn:    0.9511    constr:    0.0000
     atom:   45    charge:    2.1072    magn:    0.9518    constr:    0.0000
     atom:   46    charge:    3.1899    magn:    0.7303    constr:    0.0000
     atom:   47    charge:    2.0598    magn:    1.0010    constr:    0.0000
     atom:   48    charge:    2.0602    magn:    0.9814    constr:    0.0000
     atom:   49    charge:    2.0287    magn:    0.9931    constr:    0.0000

     total energy              =   -2982.29044785 Ry
     Harris-Foulkes estimate   =   -2995.87295959 Ry
     estimated scf accuracy    <      88.51022740 Ry

     total magnetization       =    18.35 Bohr mag/cell
     absolute magnetization    =    27.46 Bohr mag/cell

[...]

     total energy              =   -3004.17612222 Ry
     Harris-Foulkes estimate   =   -3004.17610552 Ry
     estimated scf accuracy    <       0.00000112 Ry

[...]

     iteration # 25     ecut=    40.42 Ry     beta=0.10
     Davidson diagonalization with overlap
     ethr =  2.87E-10,  avg # of iterations =  3.0

     negative rho (up, down):  1.430E-02 1.430E-02

     Magnetic moment per site:
     atom:    1    charge:    3.1251    magn:   -0.0002    constr:    0.0000
     atom:    2    charge:    2.0895    magn:    0.0000    constr:    0.0000
     atom:    3    charge:    3.1196    magn:   -0.0000    constr:    0.0000
     atom:    4    charge:    2.0871    magn:   -0.0001    constr:    0.0000
     atom:    5    charge:    3.1167    magn:    0.0000    constr:    0.0000
     atom:    6    charge:    2.0890    magn:   -0.0001    constr:    0.0000
     atom:    7    charge:    3.1218    magn:    0.0001    constr:    0.0000
     atom:    8    charge:    2.0874    magn:   -0.0001    constr:    0.0000
     atom:    9    charge:    3.1251    magn:   -0.0002    constr:    0.0000
     atom:   10    charge:    2.0895    magn:    0.0000    constr:    0.0000
     atom:   11    charge:    3.1196    magn:   -0.0000    constr:    0.0000
     atom:   12    charge:    2.0871    magn:   -0.0001    constr:    0.0000
     atom:   13    charge:    3.1147    magn:    0.0000    constr:    0.0000
     atom:   14    charge:    2.0876    magn:   -0.0001    constr:    0.0000
     atom:   15    charge:    3.1177    magn:    0.0001    constr:    0.0000
     atom:   16    charge:    2.1004    magn:   -0.0002    constr:    0.0000
     atom:   17    charge:    2.0622    magn:    0.0006    constr:    0.0000
     atom:   18    charge:    3.1238    magn:   -0.0001    constr:    0.0000
     atom:   19    charge:    2.0878    magn:   -0.0000    constr:    0.0000
     atom:   20    charge:    2.0846    magn:    0.0001    constr:    0.0000
     atom:   21    charge:    2.0846    magn:    0.0001    constr:    0.0000
     atom:   22    charge:    3.1196    magn:    0.0000    constr:    0.0000
     atom:   23    charge:    2.0903    magn:   -0.0001    constr:    0.0000
     atom:   24    charge:    2.0790    magn:   -0.0000    constr:    0.0000
     atom:   25    charge:    2.0869    magn:   -0.0001    constr:    0.0000
     atom:   26    charge:    3.1149    magn:    0.0000    constr:    0.0000
     atom:   27    charge:    2.0818    magn:   -0.0001    constr:    0.0000
     atom:   28    charge:    2.0885    magn:   -0.0001    constr:    0.0000
     atom:   29    charge:    2.0876    magn:   -0.0001    constr:    0.0000
     atom:   30    charge:    3.1182    magn:    0.0000    constr:    0.0000
     atom:   31    charge:    2.0832    magn:   -0.0001    constr:    0.0000
     atom:   32    charge:    2.0862    magn:   -0.0001    constr:    0.0000
     atom:   33    charge:    2.0622    magn:    0.0006    constr:    0.0000
     atom:   34    charge:    3.1238    magn:   -0.0001    constr:    0.0000
     atom:   35    charge:    2.0878    magn:   -0.0000    constr:    0.0000
     atom:   36    charge:    2.0846    magn:    0.0001    constr:    0.0000
     atom:   37    charge:    2.0846    magn:    0.0001    constr:    0.0000
     atom:   38    charge:    3.1196    magn:    0.0000    constr:    0.0000
     atom:   39    charge:    2.0909    magn:   -0.0001    constr:    0.0000
     atom:   40    charge:    2.0790    magn:   -0.0000    constr:    0.0000
     atom:   41    charge:    2.0869    magn:   -0.0001    constr:    0.0000
     atom:   42    charge:    3.1146    magn:    0.0000    constr:    0.0000
     atom:   43    charge:    2.0818    magn:   -0.0001    constr:    0.0000
     atom:   44    charge:    2.0857    magn:   -0.0001    constr:    0.0000
     atom:   45    charge:    2.0874    magn:   -0.0001    constr:    0.0000
     atom:   46    charge:    3.1240    magn:    0.0001    constr:    0.0000
     atom:   47    charge:    2.0842    magn:   -0.0001    constr:    0.0000
     atom:   48    charge:    2.0693    magn:   -0.0001    constr:    0.0000
     atom:   49    charge:    2.0445    magn:   -0.0002    constr:    0.0000

     End of self-consistent calculation

 ------ SPIN UP ------------

          k = 0.0000 0.0000 0.0000 ( 34665 PWs)   bands (ev):

   -58.2564 -58.2214 -58.0955 -58.0565 -57.9296 -57.8812 -57.7092 -57.6737
   -57.6531 -57.6178 -57.5780 -57.5417 -57.3931 -57.2318 -56.7029 -56.6676
   -34.6916 -34.6643 -34.5380 -34.5096 -34.4752 -34.4568 -34.4042 -34.3625
   -34.3590 -34.3133 -34.3018 -34.2902 -34.2181 -34.2042 -34.1978 -34.1461
   -34.1454 -34.1099 -34.1017 -34.0887 -34.0656 -33.9940 -33.9040 -33.8868
   -33.8705 -33.8607 -33.8581 -33.8404 -33.8254 -33.8216 -33.8110 -33.8088
   -33.7752 -33.7658 -33.7537 -33.7355 -33.7079 -33.6969 -33.6328 -33.6114
   -33.4622 -33.3930 -33.1211 -33.0548 -33.0287 -32.9253 -32.8335 -32.7249
   -22.5389 -18.6043 -18.4165 -18.3118 -18.0868 -17.9412 -17.8943 -17.8276
   -17.6575 -17.6203 -17.5487 -17.5248 -17.5101 -17.4633 -17.4383 -17.4033
   -17.3694 -17.3013 -17.2621 -17.1653 -17.1300 -17.0112 -17.0101 -16.9748
   -16.8615 -16.7734 -16.7503 -16.7298 -16.5963 -16.5684 -15.7198 -15.2850
   -15.1999  -6.9470  -6.5280  -6.2835  -5.9757  -5.9323  -5.7918  -5.7287
    -5.4655  -5.4180  -5.3753  -5.0910  -5.0425  -4.9999  -4.9763  -4.8913
    -4.8619  -4.7925  -4.7270  -4.6627  -4.6568  -4.6386  -4.5822  -4.5732
    -4.5300  -4.5150  -4.4999  -4.4338  -4.3460  -4.2996  -4.2475  -4.1954
    -4.1690  -4.1052  -4.0941  -4.0654  -4.0401  -3.9661  -3.9610  -3.9397
    -3.8473  -3.6498  -3.6021  -3.5479  -3.4699  -3.4432  -3.4331  -3.2911
    -3.1969  -3.1833  -3.1655  -3.1477  -3.0056  -2.9756  -2.9405  -2.9261
    -2.8644  -2.8268  -2.7927  -2.7697  -2.7626  -2.6920  -2.6766  -2.6068
    -2.5380  -2.4868  -2.4054  -2.3363  -2.2130  -2.1404  -2.1398  -2.0733
    -2.0555  -1.9975  -1.9297  -1.9007  -1.8873  -1.8816  -1.8280  -1.7787
    -1.7524  -1.7128  -1.6570  -1.6323  -1.6149  -1.5576  -1.5264  -1.3734
    -1.2496  -1.1988  -1.1598  -1.1408  -1.0423  -0.7840  -0.6527  -0.6386
    -0.4277  -0.3029  -0.2888   1.0858   1.1121   1.1896   1.3907   1.4454
     1.4517   1.5348   1.6213   1.6627   1.7815   1.8737   1.8864   1.9422
     1.9600   1.9749   2.0033   2.0643   2.0927   2.1021   2.1493   2.1548
     2.2440   2.2612   2.2978   2.3126   2.5050   2.5103   2.5503   2.5619
     2.5622   2.6166   2.6278   2.6395   2.6724   2.7075   2.7621   2.8407
     2.8445   2.8778   2.9084   2.9720   3.0525   3.0550   3.1549   3.3963
     3.5228   3.5283   3.6247   3.6571   3.6779   3.8321   3.8876   4.0372
     4.0872   4.2154   4.4972   4.5127   4.6180   4.6595   4.7759   4.9174
     4.9363   5.0161   5.1345   5.1880   5.2037   5.2448   5.2681   5.2736
     5.3218   5.3936   5.4934   5.5486   5.5907   5.6423   5.6799   5.7832
     5.9012   5.9848   6.0300   6.3628   6.4111   6.4650   6.5605   6.7463
     7.1837   7.8087   7.9755   8.3136   8.5662   8.5919   8.8156   8.8612
     8.9272   9.1860   9.2261   9.3146   9.3465   9.5733   9.6691

[...]

          k =-0.0759 0.0000 0.0000 ( 34758 PWs)   bands (ev):

[...]

 ------ SPIN DOWN ----------

[...]

          k = 0.0506-0.0840 0.0000 ( 34628 PWs)   bands (ev):

[...]

          k =-0.0506 0.0560 0.0000 ( 34596 PWs)   bands (ev):

   -58.2485 -58.2311 -58.0856 -58.0635 -57.9230 -57.8858 -57.6997 -57.6820
   -57.6437 -57.6259 -57.5686 -57.5491 -57.3907 -57.2324 -56.6957 -56.6781
   -34.5982 -34.5643 -34.5323 -34.5180 -34.4331 -34.4030 -34.3872 -34.3853
   -34.3763 -34.3517 -34.3359 -34.3230 -34.2920 -34.1953 -34.1524 -34.1330
   -34.1279 -34.1092 -34.1065 -34.0518 -33.9925 -33.9500 -33.9157 -33.8965
   -33.8822 -33.8786 -33.8673 -33.8550 -33.8387 -33.8329 -33.8320 -33.8222
   -33.7987 -33.7855 -33.7734 -33.7642 -33.7356 -33.6967 -33.6298 -33.6105
   -33.4945 -33.4623 -33.0521 -33.0366 -33.0264 -32.9045 -32.8586 -32.8285
   -22.5166 -18.3128 -18.1223 -18.0513 -17.9438 -17.8291 -17.8184 -17.7810
   -17.7443 -17.7292 -17.6959 -17.6188 -17.6051 -17.5031 -17.4471 -17.4193
   -17.4177 -17.3575 -17.2642 -17.2361 -17.1786 -17.1448 -17.1032 -16.9550
   -16.8411 -16.8117 -16.7826 -16.7479 -16.7352 -16.6678 -15.7036 -15.3061
   -15.2695  -6.6659  -6.3664  -6.2372  -5.5947  -5.2607  -5.2179  -5.1854
    -5.1340  -5.1101  -5.0874  -5.0508  -5.0316  -4.9639  -4.8988  -4.8713
    -4.8635  -4.7874  -4.7699  -4.7141  -4.7066  -4.6698  -4.6515  -4.6231
    -4.5988  -4.5893  -4.5315  -4.4811  -4.4638  -4.4116  -4.3412  -4.2704
    -4.2174  -4.1871  -4.0991  -4.0153  -3.9523  -3.9139  -3.8467  -3.8145
    -3.6824  -3.6222  -3.5641  -3.5063  -3.4867  -3.4478  -3.3831  -3.3583
    -3.2979  -3.2648  -3.2316  -3.1908  -3.1159  -3.0902  -3.0505  -3.0015
    -2.9459  -2.9192  -2.8987  -2.8654  -2.8431  -2.7856  -2.7482  -2.7379
    -2.6965  -2.6772  -2.5733  -2.5345  -2.5154  -2.4718  -2.4409  -2.3758
    -2.3157  -2.2510  -2.1838  -2.1025  -2.0411  -1.9954  -1.9588  -1.8918
    -1.8782  -1.8200  -1.7460  -1.6658  -1.6271  -1.5607  -1.5304  -1.4710
    -1.3776  -1.3513  -1.2864  -1.2369  -1.2233  -1.0579  -0.9115  -0.4696
    -0.4334  -0.4174  -0.3599   1.3019   1.4297   1.5191   1.5225   1.6303
     1.6549   1.6917   1.7027   1.7574   1.8303   1.8506   1.9409   1.9795
     1.9984   2.0272   2.0417   2.0728   2.1398   2.1623   2.2123   2.2452
     2.2642   2.3460   2.4093   2.4371   2.4446   2.4791   2.5445   2.5640
     2.6969   2.7232   2.7698   2.7815   2.8483   2.8624   2.8988   2.9280
     2.9907   3.0598   3.0824   3.1793   3.2128   3.2648   3.3181   3.3513
     3.3663   3.3852   3.5515   3.5984   3.7162   3.7338   3.8378   3.9113
     4.1134   4.2417   4.2535   4.3063   4.4521   4.4783   4.5727   4.6764
     4.7145   4.7719   4.8756   5.0106   5.1486   5.2185   5.2794   5.3555
     5.4828   5.5270   5.6287   5.7599   5.7885   5.7958   5.8486   5.9956
     6.0737   6.0960   6.1715   6.2694   6.3474   6.4331   6.7625   6.9573
     7.1752   7.4508   7.6229   7.7325   8.0444   8.1055   8.1892   8.5322
     8.7120   8.7930   8.9094   9.0777   9.0940   9.4040   9.4771

     the Fermi energy is     0.4337 ev

!    total energy              =   -3004.17618896 Ry
     Harris-Foulkes estimate   =   -3004.17612269 Ry
     estimated scf accuracy    <       0.00000048 Ry

     The total energy is the sum of the following terms:

     one-electron contribution =  -42058.94255941 Ry
     hartree contribution      =   21091.83900406 Ry
     xc contribution           =    -546.24140629 Ry
     ewald contribution        =   18509.16901178 Ry
     smearing contrib. (-TS)   =      -0.00023909 Ry

     total magnetization       =     0.00 Bohr mag/cell
     absolute magnetization    =     0.01 Bohr mag/cell

     convergence has been achieved in  25 iterations

     Forces acting on atoms (Ry/au):

     negative rho (up, down):  1.430E-02 1.430E-02
     atom    1 type  1   force =    -0.00016301    0.00027637   -0.13691308
     atom    2 type  2   force =     0.00006598   -0.00012217    0.07534548
     atom    3 type  1   force =     0.00070995    0.00082457   -0.05917758
     atom    4 type  2   force =     0.00464305   -0.00036089    0.00932621
     atom    5 type  1   force =     0.00007745    0.00012974    0.00014971
     atom    6 type  2   force =    -0.00004932    0.00032213   -0.00172391
     atom    7 type  1   force =     0.00065199    0.00000663    0.00076009
     atom    8 type  2   force =    -0.00058911   -0.00016666   -0.00013598
     atom    9 type  1   force =    -0.00004706    0.00036966   -0.13693279
     atom   10 type  2   force =     0.00013999   -0.00026608    0.07534915
     atom   11 type  1   force =     0.00076607   -0.00091162   -0.05936849
     atom   12 type  2   force =     0.00429671   -0.00012784    0.00813634
     atom   13 type  1   force =    -0.00052127   -0.00062084    0.00013629
     atom   14 type  2   force =    -0.00013674   -0.00016415   -0.00018498
     atom   15 type  1   force =    -0.00004544    0.00050151    0.00031989
     atom   16 type  2   force =    -0.00014374    0.00074068   -0.00053386
     atom   17 type  2   force =     0.00024039   -0.00010599    0.08099755
     atom   18 type  1   force =    -0.00016216    0.00029646    0.11716052
     atom   19 type  2   force =     0.00027292    0.00011524   -0.06543579
     atom   20 type  2   force =    -0.06319845   -0.00004892   -0.03165141
     atom   21 type  2   force =     0.06297959    0.00013637   -0.03162594
     atom   22 type  1   force =    -0.00062484    0.00001376    0.05923630
     atom   23 type  2   force =    -0.00013135    0.00025405   -0.00027597
     atom   24 type  2   force =     0.00058527   -0.00020010   -0.02269402
     atom   25 type  2   force =    -0.00450822   -0.00031982    0.00819188
     atom   26 type  1   force =     0.00000741    0.00045738    0.00010584
     atom   27 type  2   force =     0.00007213   -0.00007510   -0.00047915
     atom   28 type  2   force =    -0.00122819   -0.00008935   -0.00021148
     atom   29 type  2   force =     0.00030797   -0.00020756   -0.00006412
     atom   30 type  1   force =     0.00002710    0.00067249    0.00107757
     atom   31 type  2   force =    -0.00008870   -0.00033952   -0.00020474
     atom   32 type  2   force =     0.00009669   -0.00017538   -0.00018373
     atom   33 type  2   force =     0.00021257    0.00002350    0.08095548
     atom   34 type  1   force =    -0.00022537    0.00025018    0.11711369
     atom   35 type  2   force =     0.00029521    0.00016692   -0.06549008
     atom   36 type  2   force =    -0.06309160    0.00012990   -0.03188135
     atom   37 type  2   force =     0.06314861    0.00016834   -0.03157106
     atom   38 type  1   force =    -0.00048733   -0.00023959    0.05894139
     atom   39 type  2   force =     0.00010497   -0.00052109   -0.00074318
     atom   40 type  2   force =     0.00043225   -0.00226043   -0.02225012
     atom   41 type  2   force =    -0.00416309   -0.00029422    0.00762020
     atom   42 type  1   force =    -0.00027174   -0.00047293    0.00007834
     atom   43 type  2   force =     0.00007757    0.00007475   -0.00029493
     atom   44 type  2   force =     0.00027817    0.00018156   -0.00005034
     atom   45 type  2   force =    -0.00015699   -0.00014394   -0.00021442
     atom   46 type  1   force =    -0.00144029    0.00021973    0.00061431
     atom   47 type  2   force =    -0.00011681    0.00044960   -0.00043364
     atom   48 type  2   force =     0.00096280    0.00079656    0.00026352
     atom   49 type  2   force =     0.00013803    0.00065609   -0.00115362

     Total force =     0.365138     Total SCF correction =     0.001138
 !ASE

     Writing output data file calc.save

     General routines

     Parallel routines

   This run was terminated on:  16:39:57  10Feb2018

   JOB DONE.