     Program PWSCF v.5.1rc2 (svn rev. ) starts on 10Feb2018 at 20:44: 8

     Current dimensions of program PWSCF are:
     Max number of different atomic species (ntypx) = 10
     Max number of k-points (npk) =  40000
     Max angular momentum in pseudopotentials (lmaxx) =  3

     IMPORTANT: XC functional enforced from input :
     Exchange-correlation      = BEEF ( 1  4 27 13 2)
     Any further DFT definition will be discarded
     Please, verify this is what you really want

     Subspace diagonalization in iterative solution of the eigenvalue problem:
     a serial algorithm will be used

     Generating pointlists ...
     new r_m :   0.4125 (alat units)  0.7795 (a.u.) for type    1
     new r_m :   0.4057 (alat units)  0.7667 (a.u.) for type    2
     new r_m :   0.4057 (alat units)  0.7667 (a.u.) for type    3

     bravais-lattice index     =            0
     lattice parameter (alat)  =       1.8897  a.u.
     unit-cell volume          =    7990.9933 (a.u.)^3
     number of atoms/cell      =           50
     number of atomic types    =            3
     number of electrons       =       391.00
     number of Kohn-Sham states=          295
     kinetic-energy cutoff     =      40.4243  Ry
     charge density cutoff     =     404.2426  Ry
     convergence threshold     =      7.3E-07
     mixing beta               =       0.1000
     number of iterations used =           10  plain     mixing
     Exchange-correlation      = BEEF ( 1  4 27 13 2)
     nstep                     =           50

     celldm(1)=   1.889726  celldm(2)=   0.000000  celldm(3)=   0.000000
     celldm(4)=   0.000000  celldm(5)=   0.000000  celldm(6)=   0.000000

     crystal axes: (cart. coord. in units of alat)
               a(1) = (   6.590708   0.000000   0.000000 )
               a(2) = (   0.000000   5.950229   0.000000 )
               a(3) = (   0.000000   0.000000  30.195235 )

     reciprocal axes: (cart. coord. in units 2 pi/alat)
               b(1) = (  0.151729  0.000000  0.000000 )
               b(2) = (  0.000000  0.168061  0.000000 )
               b(3) = (  0.000000  0.000000  0.033118 )

     PseudoPot. # 1 for Ti read from file:
     /home/alatimer/bin/psp/esp_psp_w_gbrvRu/Ti.UPF
     MD5 check sum: 8e4df49b7f0d34bbd5052bf3f5ea0213
     Pseudo is Ultrasoft, Zval = 12.0
     Generated by new atomic code, or converted to UPF format
     Using radial grid of  851 points,  6 beta functions with:
                l(1) =   0
                l(2) =   0
                l(3) =   1
                l(4) =   1
                l(5) =   2
                l(6) =   2
     Q(r) pseudized with  8 coefficients,  rinner =    1.000   1.000   1.000
                                                       1.000   1.000

     PseudoPot. # 2 for  O read from file:
     /home/alatimer/bin/psp/esp_psp_w_gbrvRu/O.UPF
     MD5 check sum: e057bbcf3229fb5d8c36c0c92f9568b4
     Pseudo is Ultrasoft + core correction, Zval =  6.0
     Generated using "atomic" code by A. Dal Corso  v.5.0.2 svn rev. 9415
     Using radial grid of 1095 points,  4 beta functions with:
                l(1) =   0
                l(2) =   0
                l(3) =   1
                l(4) =   1
     Q(r) pseudized with 0 coefficients

     PseudoPot. # 3 for  H read from file:
     /home/alatimer/bin/psp/esp_psp_w_gbrvRu/H.UPF
     MD5 check sum: bd57da0722753ddfd9833a65b40bb853
     Pseudo is Ultrasoft, Zval =  1.0
     Generated using "atomic" code by A. Dal Corso  v.5.0.2 svn rev. 9415
     Using radial grid of  929 points,  2 beta functions with:
                l(1) =   0
                l(2) =   0
     Q(r) pseudized with 0 coefficients

     vdW kernel table read from file vdW_kernel_table
     MD5 check sum: 095c7af220d748ca6e76c0b4c6cfb241

     atomic species   valence    mass     pseudopotential
        Ti1           12.00    47.88000     Ti( 1.00)
        O1             6.00    15.99940      O( 1.00)
        H1             1.00     1.00794      H( 1.00)

     Starting magnetic structure
     atomic species   magnetization
        Ti1          0.250
        O1           0.500
        H1           0.000

      2 Sym. Ops. (no inversion) found ( 1 have fractional translation)

   Cartesian axes

     site n.     atom                  positions (alat units)
         1           Ti1 tau(   1) = (   1.6476770   0.7437786   2.6545865  )
         2           O1  tau(   2) = (   1.6476770   2.2313359   3.9361215  )
         3           Ti1 tau(   3) = (   1.6476770   2.2313359   5.9499405  )
         4           O1  tau(   4) = (   0.3661420   0.7437786   5.9499405  )
         5           Ti1 tau(   5) = (   1.6423058   0.7993178   9.2289010  )
         6           O1  tau(   6) = (   1.6406404   2.2313359  10.4535548  )
         7           Ti1 tau(   7) = (   1.6373334   2.2313359  13.0586656  )
         8           O1  tau(   8) = (   0.3716334   0.7231912  12.7369480  )
         9           Ti1 tau(   9) = (   1.6476770   3.7188931   2.6545865  )
        10           O1  tau(  10) = (   1.6476770   5.2064503   3.9361215  )
        11           Ti1 tau(  11) = (   1.6476770   5.2064503   5.9499405  )
        12           O1  tau(  12) = (   0.3661420   3.7188931   5.9499405  )
        13           Ti1 tau(  13) = (   1.6423059   3.6633529   9.2289023  )
        14           O1  tau(  14) = (   1.6396028   5.2064504  10.5374954  )
        15           Ti1 tau(  15) = (   1.6366369   5.2064504  12.3426698  )
        16           O1  tau(  16) = (   0.3716333   3.7394800  12.7369475  )
        17           O1  tau(  17) = (   1.6476770   2.2313359   1.3730516  )
        18           Ti1 tau(  18) = (   4.9430310   2.2313359   2.6545865  )
        19           O1  tau(  19) = (   4.9430310   2.2313359   4.6684056  )
        20           O1  tau(  20) = (   6.2245660   0.7437786   2.6545865  )
        21           O1  tau(  21) = (   3.6614961   0.7437786   2.6545865  )
        22           Ti1 tau(  22) = (   4.9430310   0.7437786   5.9499405  )
        23           O1  tau(  23) = (   1.6444126   2.2313359   7.9291264  )
        24           O1  tau(  24) = (   4.9430310   2.2313359   7.2314755  )
        25           O1  tau(  25) = (   2.9292120   0.7437786   5.9499405  )
        26           Ti1 tau(  26) = (   4.9374203   2.2313360   9.4425711  )
        27           O1  tau(  27) = (   4.9384755   2.2313359  11.2756104  )
        28           O1  tau(  28) = (   6.2333856   0.7395591   9.2701299  )
        29           O1  tau(  29) = (   3.6424277   0.7403199   9.2676498  )
        30           Ti1 tau(  30) = (   4.9388558   0.7382018  12.7898683  )
        31           O1  tau(  31) = (   4.8884434   2.2313358  13.8602379  )
        32           O1  tau(  32) = (   2.8718067   0.7224686  12.6922084  )
        33           O1  tau(  33) = (   1.6476770   5.2064503   1.3730516  )
        34           Ti1 tau(  34) = (   4.9430310   5.2064503   2.6545865  )
        35           O1  tau(  35) = (   4.9430310   5.2064503   4.6684056  )
        36           O1  tau(  36) = (   6.2245660   3.7188931   2.6545865  )
        37           O1  tau(  37) = (   3.6614961   3.7188931   2.6545865  )
        38           Ti1 tau(  38) = (   4.9430310   3.7188931   5.9499405  )
        39           O1  tau(  39) = (   1.6444418   5.2064506   7.9393866  )
        40           O1  tau(  40) = (   4.9430310   5.2064503   7.2314755  )
        41           O1  tau(  41) = (   2.9292120   3.7188931   5.9499405  )
        42           Ti1 tau(  42) = (   4.9387790   5.2064503   9.4241858  )
        43           O1  tau(  43) = (   4.9379278   5.2064504  11.2756977  )
        44           O1  tau(  44) = (   6.2333855   3.7231127   9.2701299  )
        45           O1  tau(  45) = (   3.6424278   3.7223520   9.2676499  )
        46           Ti1 tau(  46) = (   4.9388558   3.7244696  12.7898683  )
        47           O1  tau(  47) = (   4.8902929   5.2064502  13.8618696  )
        48           O1  tau(  48) = (   2.8718066   3.7402036  12.6922086  )
        49           O1  tau(  49) = (   1.7618258   2.2313358  14.8194317  )
        50           H1  tau(  50) = (   2.6007197   2.2313366  15.3328018  )

     number of k points=    32  Fermi-Dirac smearing, width (Ry)=  0.0073
                       cart. coord. in units 2pi/alat
        k(    1) = (   0.0000000   0.0000000   0.0000000), wk =   0.0277778
        k(    2) = (   0.0000000   0.0280101   0.0000000), wk =   0.0555556
        k(    3) = (   0.0000000   0.0560203   0.0000000), wk =   0.0555556
        k(    4) = (   0.0000000  -0.0840304   0.0000000), wk =   0.0277778
        k(    5) = (   0.0252881   0.0000000   0.0000000), wk =   0.0555556
        k(    6) = (   0.0252881   0.0280101   0.0000000), wk =   0.1111111
        k(    7) = (   0.0252881   0.0560203   0.0000000), wk =   0.1111111
        k(    8) = (   0.0252881  -0.0840304   0.0000000), wk =   0.0555556
        k(    9) = (   0.0505763   0.0000000   0.0000000), wk =   0.0555556
        k(   10) = (   0.0505763   0.0280101   0.0000000), wk =   0.1111111
        k(   11) = (   0.0505763   0.0560203   0.0000000), wk =   0.1111111
        k(   12) = (   0.0505763  -0.0840304   0.0000000), wk =   0.0555556
        k(   13) = (  -0.0758644   0.0000000   0.0000000), wk =   0.0277778
        k(   14) = (  -0.0758644   0.0280101   0.0000000), wk =   0.0555556
        k(   15) = (  -0.0758644   0.0560203   0.0000000), wk =   0.0555556
        k(   16) = (  -0.0758644  -0.0840304   0.0000000), wk =   0.0277778
        k(   17) = (   0.0000000   0.0000000   0.0000000), wk =   0.0277778
        k(   18) = (   0.0000000   0.0280101   0.0000000), wk =   0.0555556
        k(   19) = (   0.0000000   0.0560203   0.0000000), wk =   0.0555556
        k(   20) = (   0.0000000  -0.0840304   0.0000000), wk =   0.0277778
        k(   21) = (   0.0252881   0.0000000   0.0000000), wk =   0.0555556
        k(   22) = (   0.0252881   0.0280101   0.0000000), wk =   0.1111111
        k(   23) = (   0.0252881   0.0560203   0.0000000), wk =   0.1111111
        k(   24) = (   0.0252881  -0.0840304   0.0000000), wk =   0.0555556
        k(   25) = (   0.0505763   0.0000000   0.0000000), wk =   0.0555556
        k(   26) = (   0.0505763   0.0280101   0.0000000), wk =   0.1111111
        k(   27) = (   0.0505763   0.0560203   0.0000000), wk =   0.1111111
        k(   28) = (   0.0505763  -0.0840304   0.0000000), wk =   0.0555556
        k(   29) = (  -0.0758644   0.0000000   0.0000000), wk =   0.0277778
        k(   30) = (  -0.0758644   0.0280101   0.0000000), wk =   0.0555556
        k(   31) = (  -0.0758644   0.0560203   0.0000000), wk =   0.0555556
        k(   32) = (  -0.0758644  -0.0840304   0.0000000), wk =   0.0277778

     Largest allocated arrays     est. size (Mb)     dimensions
     Largest temporary arrays     est. size (Mb)     dimensions

     Check: negative/imaginary core charge=   -0.000049    0.000000

     The initial density is read from file :
     ./calc.save/charge-density.dat

     negative rho (up, down):  1.350E-02 1.350E-02

     *
     * You are using vdW-DF for exchange-correlation in this calculation.
[...]
     atom:   34    charge:    3.1237    magn:    0.0000    constr:    0.0000
     atom:   35    charge:    2.0102    magn:    0.0000    constr:    0.0000
     atom:   36    charge:    2.0133    magn:    0.0000    constr:    0.0000
     atom:   37    charge:    2.0133    magn:    0.0000    constr:    0.0000
     atom:   38    charge:    3.1199    magn:    0.0000    constr:    0.0000
     atom:   39    charge:    2.0105    magn:   -0.0001    constr:    0.0000
     atom:   40    charge:    2.0025    magn:   -0.0002    constr:    0.0000
     atom:   41    charge:    2.0159    magn:   -0.0000    constr:    0.0000
     atom:   42    charge:    3.1217    magn:    0.0001    constr:    0.0000
     atom:   43    charge:    2.0084    magn:   -0.0002    constr:    0.0000
     atom:   44    charge:    2.0143    magn:   -0.0002    constr:    0.0000
     atom:   45    charge:    2.0124    magn:   -0.0002    constr:    0.0000
     atom:   46    charge:    3.1196    magn:    0.0000    constr:    0.0000
     atom:   47    charge:    2.0100    magn:   -0.0001    constr:    0.0000
     atom:   48    charge:    2.0108    magn:   -0.0001    constr:    0.0000
     atom:   49    charge:    2.0140    magn:    0.0000    constr:    0.0000
     atom:   50    charge:    0.4055    magn:   -0.0000    constr:    0.0000

     total energy              =   -3005.53642833 Ry
     Harris-Foulkes estimate   =   -3005.58780899 Ry
     estimated scf accuracy    <       0.29708914 Ry

     total magnetization       =     0.01 Bohr mag/cell
     absolute magnetization    =     0.01 Bohr mag/cell

[...]

     iteration #  4     ecut=    40.42 Ry     beta=0.10
     Davidson diagonalization with overlap
     c_bands:  2 eigenvalues not converged
     ethr =  1.62E-05,  avg # of iterations =  6.0

[...]

     total energy              =   -3005.52858285 Ry
     Harris-Foulkes estimate   =   -3005.52858305 Ry
     estimated scf accuracy    <       0.00000478 Ry

[...]

     iteration # 14     ecut=    40.42 Ry     beta=0.10
     Davidson diagonalization with overlap
     ethr =  1.22E-09,  avg # of iterations =  1.4

     negative rho (up, down):  1.352E-02 1.352E-02

     Magnetic moment per site:
     atom:    1    charge:    3.1244    magn:   -0.0001    constr:    0.0000
     atom:    2    charge:    2.0137    magn:    0.0001    constr:    0.0000
     atom:    3    charge:    3.1200    magn:   -0.0000    constr:    0.0000
     atom:    4    charge:    2.0159    magn:    0.0000    constr:    0.0000
     atom:    5    charge:    3.1144    magn:    0.0000    constr:    0.0000
     atom:    6    charge:    2.0059    magn:   -0.0000    constr:    0.0000
     atom:    7    charge:    3.1171    magn:    0.0000    constr:    0.0000
     atom:    8    charge:    2.0098    magn:   -0.0000    constr:    0.0000
     atom:    9    charge:    3.1244    magn:   -0.0001    constr:    0.0000
     atom:   10    charge:    2.0138    magn:    0.0001    constr:    0.0000
     atom:   11    charge:    3.1198    magn:   -0.0000    constr:    0.0000
     atom:   12    charge:    2.0159    magn:    0.0000    constr:    0.0000
     atom:   13    charge:    3.1144    magn:    0.0000    constr:    0.0000
     atom:   14    charge:    2.0211    magn:   -0.0000    constr:    0.0000
     atom:   15    charge:    3.1165    magn:    0.0000    constr:    0.0000
     atom:   16    charge:    2.0098    magn:   -0.0000    constr:    0.0000
     atom:   17    charge:    1.9865    magn:    0.0004    constr:    0.0000
     atom:   18    charge:    3.1239    magn:   -0.0000    constr:    0.0000
     atom:   19    charge:    2.0102    magn:    0.0000    constr:    0.0000
     atom:   20    charge:    2.0135    magn:    0.0000    constr:    0.0000
     atom:   21    charge:    2.0135    magn:    0.0000    constr:    0.0000
     atom:   22    charge:    3.1199    magn:    0.0000    constr:    0.0000
     atom:   23    charge:    2.0201    magn:   -0.0000    constr:    0.0000
     atom:   24    charge:    2.0016    magn:   -0.0000    constr:    0.0000
     atom:   25    charge:    2.0158    magn:    0.0000    constr:    0.0000
     atom:   26    charge:    3.1143    magn:    0.0000    constr:    0.0000
     atom:   27    charge:    2.0076    magn:   -0.0000    constr:    0.0000
     atom:   28    charge:    2.0136    magn:   -0.0000    constr:    0.0000
     atom:   29    charge:    2.0117    magn:   -0.0000    constr:    0.0000
     atom:   30    charge:    3.1193    magn:    0.0000    constr:    0.0000
     atom:   31    charge:    2.0114    magn:   -0.0000    constr:    0.0000
     atom:   32    charge:    2.0107    magn:   -0.0000    constr:    0.0000
     atom:   33    charge:    1.9865    magn:    0.0004    constr:    0.0000
     atom:   34    charge:    3.1239    magn:   -0.0000    constr:    0.0000
     atom:   35    charge:    2.0102    magn:    0.0000    constr:    0.0000
     atom:   36    charge:    2.0135    magn:    0.0000    constr:    0.0000
     atom:   37    charge:    2.0135    magn:    0.0000    constr:    0.0000
     atom:   38    charge:    3.1199    magn:    0.0000    constr:    0.0000
     atom:   39    charge:    2.0102    magn:   -0.0000    constr:    0.0000
     atom:   40    charge:    2.0020    magn:   -0.0000    constr:    0.0000
     atom:   41    charge:    2.0158    magn:    0.0000    constr:    0.0000
     atom:   42    charge:    3.1217    magn:    0.0000    constr:    0.0000
     atom:   43    charge:    2.0075    magn:   -0.0000    constr:    0.0000
     atom:   44    charge:    2.0136    magn:   -0.0000    constr:    0.0000
     atom:   45    charge:    2.0117    magn:   -0.0000    constr:    0.0000
     atom:   46    charge:    3.1193    magn:    0.0000    constr:    0.0000
     atom:   47    charge:    2.0110    magn:   -0.0000    constr:    0.0000
     atom:   48    charge:    2.0107    magn:   -0.0000    constr:    0.0000
     atom:   49    charge:    2.0242    magn:   -0.0000    constr:    0.0000
     atom:   50    charge:    0.3938    magn:   -0.0000    constr:    0.0000

     End of self-consistent calculation

 ------ SPIN UP ------------

          k = 0.0000 0.0000 0.0000 ( 34665 PWs)   bands (ev):

   -58.4760 -58.4409 -57.5644 -57.5343 -57.5287 -57.4517 -57.4370 -57.3974
   -57.2806 -57.2541 -57.2335 -57.1979 -57.0885 -57.0532 -56.9881 -56.9501
   -34.9209 -34.7450 -34.7162 -34.6823 -34.5873 -34.5305 -34.0637 -34.0189
   -33.9792 -33.8380 -33.8174 -33.7579 -33.7378 -33.7317 -33.7224 -33.7133
   -33.7059 -33.6731 -33.6704 -33.6638 -33.6602 -33.6377 -33.6278 -33.6234
   -33.6191 -33.6169 -33.6024 -33.5451 -33.5222 -33.5181 -33.5071 -33.4659
   -33.4594 -33.4564 -33.4294 -33.4157 -33.4038 -33.4026 -33.3608 -33.3545
   -33.3068 -33.2656 -33.2189 -33.2171 -33.2000 -33.1773 -33.1154 -33.0700
   -18.6397 -18.2686 -18.2084 -17.9783 -17.8817 -17.7125 -17.6997 -17.5929
   -17.5613 -17.5365 -17.4272 -17.2285 -17.1879 -17.1812 -17.1159 -17.0190
   -16.9997 -16.9769 -16.9083 -16.8672 -16.8107 -16.7787 -16.7758 -16.7531
   -16.6603 -16.5973 -16.5852 -16.4733 -16.4633 -16.3229 -16.2606 -15.7681
   -15.7078  -6.2179  -6.1070  -5.6623  -5.4658  -5.3842  -5.2813  -5.1569
    -5.1278  -5.0481  -4.9155  -4.8248  -4.7698  -4.7566  -4.6845  -4.6101
    -4.5816  -4.5126  -4.4991  -4.3867  -4.3833  -4.3330  -4.3124  -4.2175
    -4.1899  -4.1387  -4.0766  -4.0606  -4.0567  -4.0451  -3.9629  -3.9469
    -3.8785  -3.8054  -3.7946  -3.7117  -3.7082  -3.6978  -3.5916  -3.5869
    -3.5506  -3.4401  -3.4226  -3.3824  -3.2678  -3.1260  -3.0592  -3.0224
    -2.9422  -2.9271  -2.8747  -2.8659  -2.8530  -2.7792  -2.7191  -2.7056
    -2.6136  -2.5612  -2.4685  -2.4096  -2.3976  -2.3965  -2.3116  -2.2649
    -2.2151  -2.2016  -2.1392  -2.0919  -2.0564  -2.0441  -1.8970  -1.8182
    -1.7976  -1.7936  -1.7820  -1.6860  -1.5924  -1.5374  -1.5334  -1.4998
    -1.4992  -1.4690  -1.4194  -1.3364  -1.3151  -1.3117  -1.2788  -1.2631
    -1.2470  -1.1311  -1.0367  -0.9703  -0.9211  -0.8495  -0.8402  -0.7874
    -0.7208  -0.6839  -0.6334  -0.3400   0.8555   0.9528   1.2458   1.5290
     1.6363   1.7235   1.7514   1.8444   1.8761   1.9644   1.9897   2.0543
     2.0663   2.2068   2.2204   2.2966   2.3167   2.3472   2.4270   2.4492
     2.4972   2.5041   2.5417   2.5563   2.6560   2.6614   2.7054   2.7521
     2.7826   2.7959   2.8374   2.8635   2.8901   2.9190   2.9290   3.0284
     3.0492   3.0677   3.2390   3.2446   3.2758   3.2917   3.3840   3.4414
     3.5041   3.5339   3.6276   3.7774   3.9108   3.9274   4.1134   4.3044
     4.4353   4.5369   4.5423   4.6765   4.8465   4.9583   4.9939   5.1105
     5.2233   5.2341   5.2645   5.2760   5.3222   5.3711   5.3738   5.4917
     5.5138   5.5572   5.7246   5.7439   5.7814   5.9147   5.9383   5.9435
     6.0248   6.0865   6.2574   6.3224   6.3766   6.3997   6.6106   6.6411
     7.0959   7.7747   8.0180   8.0262   8.1711   8.2421   8.5993   8.7192
     8.7731   9.0601   9.1526   9.2097   9.3298   9.4097   9.5788

[...]

          k =-0.0759 0.0000 0.0000 ( 34758 PWs)   bands (ev):

[...]

 ------ SPIN DOWN ----------

[...]

          k = 0.0506-0.0840 0.0000 ( 34628 PWs)   bands (ev):

[...]

          k =-0.0759-0.0840 0.0000 ( 34556 PWs)   bands (ev):

   -58.4594 -58.4577 -57.5464 -57.5464 -57.5307 -57.4557 -57.4258 -57.4084
   -57.2702 -57.2645 -57.2198 -57.2115 -57.0713 -57.0713 -56.9700 -56.9683
   -34.7315 -34.7307 -34.7294 -34.7291 -34.6343 -34.6327 -33.8715 -33.8711
   -33.8652 -33.8488 -33.8128 -33.7711 -33.7710 -33.7589 -33.7400 -33.7396
   -33.7343 -33.7255 -33.6937 -33.6626 -33.6573 -33.6384 -33.6324 -33.6316
   -33.6299 -33.5891 -33.5332 -33.5321 -33.5312 -33.5113 -33.4850 -33.4796
   -33.4506 -33.4481 -33.4433 -33.4325 -33.4177 -33.4177 -33.3173 -33.3164
   -33.3159 -33.3074 -33.2628 -33.2625 -33.2124 -33.2114 -33.2081 -33.2011
   -18.2531 -17.9843 -17.9840 -17.9141 -17.9121 -17.6666 -17.6264 -17.6260
   -17.6244 -17.3537 -17.2263 -17.2179 -17.2150 -17.1251 -17.1183 -17.0623
   -17.0228 -16.9713 -16.9570 -16.9453 -16.9437 -16.9436 -16.9369 -16.7377
   -16.7162 -16.7014 -16.6979 -16.6096 -16.6081 -16.4419 -16.4167 -15.8181
   -15.8180  -6.0969  -5.0545  -5.0448  -4.9760  -4.9739  -4.8424  -4.8421
    -4.8368  -4.8296  -4.5881  -4.5826  -4.5794  -4.5140  -4.4529  -4.3826
    -4.3809  -4.3793  -4.3448  -4.3299  -4.3160  -4.3062  -4.2882  -4.2389
    -4.2346  -4.2053  -4.2052  -4.1897  -4.0783  -4.0205  -3.9621  -3.9407
    -3.9049  -3.8271  -3.8186  -3.8159  -3.7002  -3.6259  -3.6127  -3.6044
    -3.4803  -3.4794  -3.3274  -3.3273  -3.3131  -3.2792  -3.2112  -3.1752
    -3.1184  -3.1083  -3.0251  -3.0163  -2.9880  -2.9696  -2.9496  -2.8699
    -2.8227  -2.7323  -2.6964  -2.6575  -2.6064  -2.6005  -2.5494  -2.5439
    -2.5235  -2.4481  -2.3945  -2.3941  -2.3676  -2.3028  -2.2567  -2.2159
    -2.1037  -2.0407  -2.0335  -2.0084  -1.8903  -1.8674  -1.8214  -1.6737
    -1.6285  -1.5986  -1.5854  -1.5619  -1.3190  -1.2782  -1.2619  -1.2552
    -1.2198  -1.1714  -1.0952  -1.0206  -0.9453  -0.9152  -0.9021  -0.8649
    -0.8424  -0.8132  -0.7399  -0.7275   1.4325   1.4364   1.4481   1.4538
     1.7957   1.7963   1.9241   1.9260   2.0784   2.1343   2.1372   2.1914
     2.2643   2.2937   2.3870   2.4612   2.4678   2.5375   2.5724   2.6409
     2.6410   2.6647   2.7962   2.7974   2.8044   2.8191   2.8361   2.8701
     2.9169   2.9750   2.9820   3.0703   3.0739   3.0765   3.1000   3.1146
     3.1898   3.2274   3.2302   3.2832   3.2917   3.3131   3.3275   3.3315
     3.3985   3.4206   3.5736   3.6540   3.7171   3.7176   3.9718   3.9722
     4.3764   4.4564   4.4825   4.5426   4.6777   4.6963   4.7348   4.8381
     4.9894   5.0074   5.0178   5.0496   5.5032   5.5044   5.5220   5.7389
     5.7634   5.7657   5.8272   5.8454   5.9268   5.9309   5.9681   6.0732
     6.1089   6.1167   6.2009   6.2676   6.3238   6.4230   6.6819   7.0799
     7.4054   7.4189   7.4380   7.4969   7.6810   7.6935   7.8299   7.9076
     8.2445   8.2554   8.4265   8.5571   9.0391   9.0556   9.1741

     the Fermi energy is    -0.4569 ev

!    total energy              =   -3005.52858339 Ry
     Harris-Foulkes estimate   =   -3005.52858304 Ry
     estimated scf accuracy    <       0.00000022 Ry

     The total energy is the sum of the following terms:

     one-electron contribution =  -41028.47258208 Ry
     hartree contribution      =   20580.44173887 Ry
     xc contribution           =    -546.73931484 Ry
     ewald contribution        =   17989.26115212 Ry
     smearing contrib. (-TS)   =      -0.01957746 Ry

     total magnetization       =     0.00 Bohr mag/cell
     absolute magnetization    =     0.00 Bohr mag/cell

     convergence has been achieved in  14 iterations

     Forces acting on atoms (Ry/au):

     negative rho (up, down):  1.352E-02 1.352E-02
     atom    1 type  1   force =    -0.00000277   -0.00110400   -0.10407140
     atom    2 type  2   force =    -0.00000042    0.00000000    0.03810444
     atom    3 type  1   force =    -0.00011509    0.00000000   -0.02274517
     atom    4 type  2   force =    -0.00616108    0.00313276   -0.00578687
     atom    5 type  1   force =     0.00029798    0.00045421   -0.00055679
     atom    6 type  2   force =    -0.00038511    0.00000000   -0.00049413
     atom    7 type  1   force =    -0.00116132    0.00000000   -0.02693232
     atom    8 type  2   force =    -0.00095974   -0.00083590   -0.00028186
     atom    9 type  1   force =    -0.00000277    0.00110400   -0.10407140
     atom   10 type  2   force =    -0.00000215    0.00000000    0.03432409
     atom   11 type  1   force =    -0.00010939    0.00000000    0.01133438
     atom   12 type  2   force =    -0.00616108   -0.00313276   -0.00578687
     atom   13 type  1   force =     0.00029798   -0.00045421   -0.00055679
     atom   14 type  2   force =    -0.00069391    0.00000000   -0.00137483
     atom   15 type  1   force =     0.00049305    0.00000000    0.00088180
     atom   16 type  2   force =    -0.00095974    0.00083590   -0.00028186
     atom   17 type  2   force =    -0.00001510    0.00000000    0.06637752
     atom   18 type  1   force =     0.00012509    0.00000000    0.13082102
     atom   19 type  2   force =    -0.00012845    0.00000000   -0.08419011
     atom   20 type  2   force =    -0.05790921    0.00018105   -0.03626408
     atom   21 type  2   force =     0.05802753    0.00021965   -0.03615397
     atom   22 type  1   force =    -0.00002577    0.00088103    0.07803186
     atom   23 type  2   force =    -0.00017931    0.00000000    0.00131592
     atom   24 type  2   force =    -0.00013628    0.00000000   -0.03627551
     atom   25 type  2   force =     0.00593513    0.00308567   -0.00553938
     atom   26 type  1   force =    -0.00042426    0.00000000    0.00015477
     atom   27 type  2   force =     0.00038463    0.00000000    0.00154710
     atom   28 type  2   force =    -0.00025944    0.00034302   -0.00037678
     atom   29 type  2   force =    -0.00023656    0.00020524    0.00004918
     atom   30 type  1   force =     0.00000420    0.00034767   -0.00032013
     atom   31 type  2   force =    -0.00043284    0.00000000    0.00075382
     atom   32 type  2   force =     0.00131468   -0.00161987   -0.00038696
     atom   33 type  2   force =    -0.00002281    0.00000000    0.06629479
     atom   34 type  1   force =     0.00004929    0.00000000    0.13060424
     atom   35 type  2   force =    -0.00011131    0.00000000   -0.08359562
     atom   36 type  2   force =    -0.05790921   -0.00018105   -0.03626408
     atom   37 type  2   force =     0.05802753   -0.00021965   -0.03615397
     atom   38 type  1   force =    -0.00002577   -0.00088103    0.07803186
     atom   39 type  2   force =    -0.00009773    0.00000000   -0.00024365
     atom   40 type  2   force =     0.00005550    0.00000000   -0.03529779
     atom   41 type  2   force =     0.00593513   -0.00308567   -0.00553938
     atom   42 type  1   force =    -0.00055376    0.00000000    0.00088385
     atom   43 type  2   force =     0.00039073    0.00000000    0.00179040
     atom   44 type  2   force =    -0.00025944   -0.00034302   -0.00037678
     atom   45 type  2   force =    -0.00023656   -0.00020524    0.00004918
     atom   46 type  1   force =     0.00000420   -0.00034767   -0.00032013
     atom   47 type  2   force =     0.00170659    0.00000000    0.00119405
     atom   48 type  2   force =     0.00131468    0.00161987   -0.00038696
     atom   49 type  2   force =     0.02650741    0.00000000    0.04313383
     atom   50 type  3   force =    -0.02519298    0.00000000   -0.01505255

     Total force =     0.346285     Total SCF correction =     0.001777
 !ASE

     Writing output data file calc.save

     General routines

     Parallel routines

   This run was terminated on:  21:38:20  10Feb2018

   JOB DONE.