     Program PWSCF v.5.1rc2 (svn rev. ) starts on 10Mar2018 at 17:13:28

     Current dimensions of program PWSCF are:
     Max number of different atomic species (ntypx) = 10
     Max number of k-points (npk) =  40000
     Max angular momentum in pseudopotentials (lmaxx) =  3

     IMPORTANT: XC functional enforced from input :
     Exchange-correlation      = BEEF ( 1  4 27 13 2)
     Any further DFT definition will be discarded
     Please, verify this is what you really want

     Subspace diagonalization in iterative solution of the eigenvalue problem:
     a serial algorithm will be used

     Generating pointlists ...
     new r_m :   0.4125 (alat units)  0.7795 (a.u.) for type    1
     new r_m :   0.4125 (alat units)  0.7795 (a.u.) for type    2
     new r_m :   0.4125 (alat units)  0.7795 (a.u.) for type    3

     bravais-lattice index     =            0
     lattice parameter (alat)  =       1.8897  a.u.
     unit-cell volume          =    7990.9933 (a.u.)^3
     number of atoms/cell      =           51
     number of atomic types    =            3
     number of electrons       =       400.00
     number of Kohn-Sham states=          300
     kinetic-energy cutoff     =      40.4243  Ry
     charge density cutoff     =     404.2426  Ry
     convergence threshold     =      7.3E-07
     mixing beta               =       0.1000
     number of iterations used =           10  plain     mixing
     Exchange-correlation      = BEEF ( 1  4 27 13 2)
     nstep                     =           50

     celldm(1)=   1.889726  celldm(2)=   0.000000  celldm(3)=   0.000000
     celldm(4)=   0.000000  celldm(5)=   0.000000  celldm(6)=   0.000000

     crystal axes: (cart. coord. in units of alat)
               a(1) = (   6.590708   0.000000   0.000000 )
               a(2) = (   0.000000   5.950229   0.000000 )
               a(3) = (   0.000000   0.000000  30.195235 )

     reciprocal axes: (cart. coord. in units 2 pi/alat)
               b(1) = (  0.151729  0.000000  0.000000 )
               b(2) = (  0.000000  0.168061  0.000000 )
               b(3) = (  0.000000  0.000000  0.033118 )

     PseudoPot. # 1 for Ti read from file:
     /home/alatimer/bin/psp/esp_psp_w_gbrvRu/Ti.UPF
     MD5 check sum: 8e4df49b7f0d34bbd5052bf3f5ea0213
     Pseudo is Ultrasoft, Zval = 12.0
     Generated by new atomic code, or converted to UPF format
     Using radial grid of  851 points,  6 beta functions with:
                l(1) =   0
                l(2) =   0
                l(3) =   1
                l(4) =   1
                l(5) =   2
                l(6) =   2
     Q(r) pseudized with  8 coefficients,  rinner =    1.000   1.000   1.000
                                                       1.000   1.000

     PseudoPot. # 2 for  O read from file:
     /home/alatimer/bin/psp/esp_psp_w_gbrvRu/O.UPF
     MD5 check sum: e057bbcf3229fb5d8c36c0c92f9568b4
     Pseudo is Ultrasoft + core correction, Zval =  6.0
     Generated using "atomic" code by A. Dal Corso  v.5.0.2 svn rev. 9415
     Using radial grid of 1095 points,  4 beta functions with:
                l(1) =   0
                l(2) =   0
                l(3) =   1
                l(4) =   1
     Q(r) pseudized with 0 coefficients

     PseudoPot. # 3 for  N read from file:
     /home/alatimer/bin/psp/esp_psp_w_gbrvRu/N.UPF
     MD5 check sum: ed8b6a90f28a53b7d71920e7015d2dd6
     Pseudo is Ultrasoft + core correction, Zval =  5.0
     Generated using "atomic" code by A. Dal Corso  v.5.0.2 svn rev. 9415
     Using radial grid of 1085 points,  4 beta functions with:
                l(1) =   0
                l(2) =   0
                l(3) =   1
                l(4) =   1
     Q(r) pseudized with 0 coefficients

     vdW kernel table read from file vdW_kernel_table
     MD5 check sum: 095c7af220d748ca6e76c0b4c6cfb241

     atomic species   valence    mass     pseudopotential
        Ti1           12.00    47.88000     Ti( 1.00)
        O1             6.00    15.99940      O( 1.00)
        N1             5.00    14.00670      N( 1.00)

     Starting magnetic structure
     atomic species   magnetization
        Ti1          0.250
        O1           0.500
        N1           0.600

     No symmetry found

   Cartesian axes

     site n.     atom                  positions (alat units)
         1           Ti1 tau(   1) = (   1.6476770   0.7437786   2.6545865  )
         2           O1  tau(   2) = (   1.6476770   2.2313359   3.9361215  )
         3           Ti1 tau(   3) = (   1.6476770   2.2313359   5.9499405  )
         4           O1  tau(   4) = (   0.3661420   0.7437786   5.9499405  )
         5           Ti1 tau(   5) = (   1.5280591   0.7315068   9.1973351  )
         6           O1  tau(   6) = (   1.6613943   2.1836906  10.6091769  )
         7           Ti1 tau(   7) = (   1.6665780   2.2096385  12.4157880  )
         8           O1  tau(   8) = (   0.4439715   0.7264440  12.7601561  )
         9           Ti1 tau(   9) = (   1.6476770   3.7188931   2.6545865  )
        10           O1  tau(  10) = (   1.6476770   5.2064503   3.9361215  )
        11           Ti1 tau(  11) = (   1.6476770   5.2064503   5.9499405  )
        12           O1  tau(  12) = (   0.3661420   3.7188931   5.9499405  )
        13           Ti1 tau(  13) = (   1.5319291   3.7072436   9.2118370  )
        14           O1  tau(  14) = (   1.6575607   5.2126413  10.6087893  )
        15           Ti1 tau(  15) = (   1.6606453   5.1916961  12.4165775  )
        16           O1  tau(  16) = (   0.4123725   3.7022030  12.5882193  )
        17           O1  tau(  17) = (   1.6476770   2.2313359   1.3730516  )
        18           Ti1 tau(  18) = (   4.9430310   2.2313359   2.6545865  )
        19           O1  tau(  19) = (   4.9430310   2.2313359   4.6684056  )
        20           O1  tau(  20) = (   6.2245660   0.7437786   2.6545865  )
        21           O1  tau(  21) = (   3.6614961   0.7437786   2.6545865  )
        22           Ti1 tau(  22) = (   4.9430310   0.7437786   5.9499405  )
        23           O1  tau(  23) = (   1.6517842   2.2287041   8.0298356  )
        24           O1  tau(  24) = (   4.9430310   2.2313359   7.2314755  )
        25           O1  tau(  25) = (   2.9292120   0.7437786   5.9499405  )
        26           Ti1 tau(  26) = (   4.8605205   2.2076595   9.4238065  )
        27           O1  tau(  27) = (   4.9553550   2.1639423  11.2756624  )
        28           O1  tau(  28) = (   6.2690671   0.7288246   9.2688367  )
        29           O1  tau(  29) = (   3.6660957   0.7249325   9.2867299  )
        30           Ti1 tau(  30) = (   4.9284588   0.7282168  12.7798302  )
        31           O1  tau(  31) = (   4.9953437   2.2216212  13.8477397  )
        32           O1  tau(  32) = (   2.9112183   0.7266397  12.7651274  )
        33           O1  tau(  33) = (   1.6476770   5.2064503   1.3730516  )
        34           Ti1 tau(  34) = (   4.9430310   5.2064503   2.6545865  )
        35           O1  tau(  35) = (   4.9430310   5.2064503   4.6684056  )
        36           O1  tau(  36) = (   6.2245660   3.7188931   2.6545865  )
        37           O1  tau(  37) = (   3.6614961   3.7188931   2.6545865  )
        38           Ti1 tau(  38) = (   4.9430310   3.7188931   5.9499405  )
        39           O1  tau(  39) = (   1.6524867   5.1852222   8.0294571  )
        40           O1  tau(  40) = (   4.9430310   5.2064503   7.2314755  )
        41           O1  tau(  41) = (   2.9292120   3.7188931   5.9499405  )
        42           Ti1 tau(  42) = (   4.8610151   5.1886528   9.4241876  )
        43           O1  tau(  43) = (   4.9550983   5.2107439  11.2753448  )
        44           O1  tau(  44) = (   6.2713562   3.7024388   9.3047907  )
        45           O1  tau(  45) = (   3.6650622   3.7005085   9.3135888  )
        46           Ti1 tau(  46) = (   5.0160509   3.7038162  12.7585864  )
        47           O1  tau(  47) = (   4.9984032   5.1727849  13.8485277  )
        48           O1  tau(  48) = (   2.9655234   3.7049164  12.5317472  )
        49           O1  tau(  49) = (   2.2548149   3.7063572  14.5693114  )
        50           N1  tau(  50) = (   2.4020298   3.6667063  16.9651815  )
        51           N1  tau(  51) = (   2.1425646   3.7219273  15.8611024  )

     number of k points=    40  Fermi-Dirac smearing, width (Ry)=  0.0073
                       cart. coord. in units 2pi/alat
        k(    1) = (   0.0000000   0.0000000   0.0000000), wk =   0.0277778
        k(    2) = (   0.0000000   0.0280101   0.0000000), wk =   0.0555556
        k(    3) = (   0.0000000   0.0560203   0.0000000), wk =   0.0555556
        k(    4) = (   0.0000000  -0.0840304   0.0000000), wk =   0.0277778
        k(    5) = (   0.0252881   0.0000000   0.0000000), wk =   0.0555556
        k(    6) = (   0.0252881   0.0280101   0.0000000), wk =   0.0555556
        k(    7) = (   0.0252881   0.0560203   0.0000000), wk =   0.0555556
        k(    8) = (   0.0252881  -0.0840304   0.0000000), wk =   0.0555556
        k(    9) = (   0.0505763   0.0000000   0.0000000), wk =   0.0555556
        k(   10) = (   0.0505763   0.0280101   0.0000000), wk =   0.0555556
        k(   11) = (   0.0505763   0.0560203   0.0000000), wk =   0.0555556
        k(   12) = (   0.0505763  -0.0840304   0.0000000), wk =   0.0555556
        k(   13) = (  -0.0758644   0.0000000   0.0000000), wk =   0.0277778
        k(   14) = (  -0.0758644   0.0280101   0.0000000), wk =   0.0555556
        k(   15) = (  -0.0758644   0.0560203   0.0000000), wk =   0.0555556
        k(   16) = (  -0.0758644  -0.0840304   0.0000000), wk =   0.0277778
        k(   17) = (  -0.0252881   0.0280101   0.0000000), wk =   0.0555556
        k(   18) = (  -0.0252881   0.0560203   0.0000000), wk =   0.0555556
        k(   19) = (  -0.0505763   0.0280101   0.0000000), wk =   0.0555556
        k(   20) = (  -0.0505763   0.0560203   0.0000000), wk =   0.0555556
        k(   21) = (   0.0000000   0.0000000   0.0000000), wk =   0.0277778
        k(   22) = (   0.0000000   0.0280101   0.0000000), wk =   0.0555556
        k(   23) = (   0.0000000   0.0560203   0.0000000), wk =   0.0555556
        k(   24) = (   0.0000000  -0.0840304   0.0000000), wk =   0.0277778
        k(   25) = (   0.0252881   0.0000000   0.0000000), wk =   0.0555556
        k(   26) = (   0.0252881   0.0280101   0.0000000), wk =   0.0555556
        k(   27) = (   0.0252881   0.0560203   0.0000000), wk =   0.0555556
        k(   28) = (   0.0252881  -0.0840304   0.0000000), wk =   0.0555556
        k(   29) = (   0.0505763   0.0000000   0.0000000), wk =   0.0555556
        k(   30) = (   0.0505763   0.0280101   0.0000000), wk =   0.0555556
        k(   31) = (   0.0505763   0.0560203   0.0000000), wk =   0.0555556
        k(   32) = (   0.0505763  -0.0840304   0.0000000), wk =   0.0555556
        k(   33) = (  -0.0758644   0.0000000   0.0000000), wk =   0.0277778
        k(   34) = (  -0.0758644   0.0280101   0.0000000), wk =   0.0555556
        k(   35) = (  -0.0758644   0.0560203   0.0000000), wk =   0.0555556
        k(   36) = (  -0.0758644  -0.0840304   0.0000000), wk =   0.0277778
[...]
     atom:   36    charge:    2.0847    magn:   -0.0001    constr:    0.0000
     atom:   37    charge:    2.0847    magn:   -0.0001    constr:    0.0000
     atom:   38    charge:    3.1197    magn:   -0.0000    constr:    0.0000
     atom:   39    charge:    2.0912    magn:    0.0001    constr:    0.0000
     atom:   40    charge:    2.0777    magn:    0.0001    constr:    0.0000
     atom:   41    charge:    2.0869    magn:    0.0000    constr:    0.0000
     atom:   42    charge:    3.1181    magn:   -0.0001    constr:    0.0000
     atom:   43    charge:    2.0838    magn:    0.0002    constr:    0.0000
     atom:   44    charge:    2.0865    magn:    0.0001    constr:    0.0000
     atom:   45    charge:    2.0871    magn:    0.0001    constr:    0.0000
     atom:   46    charge:    3.1171    magn:   -0.0001    constr:    0.0000
     atom:   47    charge:    2.0800    magn:    0.0003    constr:    0.0000
     atom:   48    charge:    2.0834    magn:    0.0002    constr:    0.0000
     atom:   49    charge:    2.0520    magn:   -0.0000    constr:    0.0000
     atom:   50    charge:    1.2584    magn:   -0.0000    constr:    0.0000
     atom:   51    charge:    1.2856    magn:    0.0000    constr:    0.0000

     total energy              =   -3044.96712385 Ry
     Harris-Foulkes estimate   =   -3044.97250093 Ry
     estimated scf accuracy    <       0.03837712 Ry

     total magnetization       =     0.00 Bohr mag/cell
     absolute magnetization    =     0.01 Bohr mag/cell

[...]

     total energy              =   -3044.95629740 Ry
     Harris-Foulkes estimate   =   -3044.95629738 Ry
     estimated scf accuracy    <       0.00000128 Ry

[...]

     iteration #  9     ecut=    40.42 Ry     beta=0.10
     Davidson diagonalization with overlap
     ethr =  3.19E-10,  avg # of iterations =  2.0

     negative rho (up, down):  1.158E-02 1.158E-02

     Magnetic moment per site:
     atom:    1    charge:    3.1250    magn:   -0.0000    constr:    0.0000
     atom:    2    charge:    2.0894    magn:    0.0000    constr:    0.0000
     atom:    3    charge:    3.1196    magn:   -0.0000    constr:    0.0000
     atom:    4    charge:    2.0870    magn:    0.0000    constr:    0.0000
     atom:    5    charge:    3.1170    magn:   -0.0000    constr:    0.0000
     atom:    6    charge:    2.0917    magn:    0.0000    constr:    0.0000
     atom:    7    charge:    3.1185    magn:   -0.0000    constr:    0.0000
     atom:    8    charge:    2.0816    magn:    0.0000    constr:    0.0000
     atom:    9    charge:    3.1250    magn:   -0.0000    constr:    0.0000
     atom:   10    charge:    2.0894    magn:    0.0000    constr:    0.0000
     atom:   11    charge:    3.1196    magn:   -0.0000    constr:    0.0000
     atom:   12    charge:    2.0870    magn:    0.0000    constr:    0.0000
     atom:   13    charge:    3.1148    magn:   -0.0000    constr:    0.0000
     atom:   14    charge:    2.0911    magn:    0.0000    constr:    0.0000
     atom:   15    charge:    3.1194    magn:   -0.0000    constr:    0.0000
     atom:   16    charge:    2.0883    magn:    0.0000    constr:    0.0000
     atom:   17    charge:    2.0624    magn:    0.0001    constr:    0.0000
     atom:   18    charge:    3.1239    magn:   -0.0000    constr:    0.0000
     atom:   19    charge:    2.0878    magn:   -0.0000    constr:    0.0000
     atom:   20    charge:    2.0847    magn:   -0.0000    constr:    0.0000
     atom:   21    charge:    2.0847    magn:   -0.0000    constr:    0.0000
     atom:   22    charge:    3.1197    magn:   -0.0000    constr:    0.0000
     atom:   23    charge:    2.0909    magn:    0.0000    constr:    0.0000
     atom:   24    charge:    2.0777    magn:    0.0000    constr:    0.0000
     atom:   25    charge:    2.0869    magn:    0.0000    constr:    0.0000
     atom:   26    charge:    3.1165    magn:   -0.0000    constr:    0.0000
     atom:   27    charge:    2.0823    magn:    0.0000    constr:    0.0000
     atom:   28    charge:    2.0879    magn:    0.0000    constr:    0.0000
     atom:   29    charge:    2.0877    magn:    0.0000    constr:    0.0000
     atom:   30    charge:    3.1168    magn:   -0.0000    constr:    0.0000
     atom:   31    charge:    2.0815    magn:    0.0000    constr:    0.0000
     atom:   32    charge:    2.0843    magn:    0.0000    constr:    0.0000
     atom:   33    charge:    2.0624    magn:    0.0001    constr:    0.0000
     atom:   34    charge:    3.1239    magn:   -0.0000    constr:    0.0000
     atom:   35    charge:    2.0878    magn:   -0.0000    constr:    0.0000
     atom:   36    charge:    2.0847    magn:   -0.0000    constr:    0.0000
     atom:   37    charge:    2.0847    magn:   -0.0000    constr:    0.0000
     atom:   38    charge:    3.1197    magn:   -0.0000    constr:    0.0000
     atom:   39    charge:    2.0912    magn:    0.0000    constr:    0.0000
     atom:   40    charge:    2.0777    magn:    0.0000    constr:    0.0000
     atom:   41    charge:    2.0869    magn:    0.0000    constr:    0.0000
     atom:   42    charge:    3.1181    magn:   -0.0000    constr:    0.0000
     atom:   43    charge:    2.0838    magn:    0.0000    constr:    0.0000
     atom:   44    charge:    2.0865    magn:    0.0000    constr:    0.0000
     atom:   45    charge:    2.0871    magn:    0.0000    constr:    0.0000
     atom:   46    charge:    3.1171    magn:   -0.0000    constr:    0.0000
     atom:   47    charge:    2.0797    magn:    0.0000    constr:    0.0000
     atom:   48    charge:    2.0835    magn:    0.0000    constr:    0.0000
     atom:   49    charge:    2.0520    magn:    0.0000    constr:    0.0000
     atom:   50    charge:    1.2585    magn:   -0.0000    constr:    0.0000
     atom:   51    charge:    1.2879    magn:    0.0000    constr:    0.0000

     End of self-consistent calculation

 ------ SPIN UP ------------

          k = 0.0000 0.0000 0.0000 ( 34665 PWs)   bands (ev):

   -57.8240 -57.7890 -57.5141 -57.4585 -57.3901 -57.3541 -57.2794 -57.2441
   -57.1818 -57.1465 -57.1185 -57.0832 -56.8851 -56.8129 -56.2860 -56.2507
   -34.2603 -34.1051 -34.0765 -34.0610 -34.0255 -33.9312 -33.8704 -33.8660
   -33.8284 -33.7729 -33.7341 -33.7240 -33.7203 -33.6889 -33.6731 -33.6695
   -33.6503 -33.6408 -33.6196 -33.5579 -33.5269 -33.4611 -33.4608 -33.4401
   -33.4331 -33.4306 -33.3889 -33.3843 -33.3797 -33.3618 -33.3573 -33.3371
   -33.3144 -33.3084 -33.2808 -33.2753 -33.2498 -33.1464 -33.1415 -33.0847
   -33.0403 -32.9395 -32.7047 -32.6372 -32.6111 -32.5087 -32.4169 -32.3087
   -24.2360 -20.9928 -18.1775 -17.9764 -17.7534 -17.6313 -17.4972 -17.4955
   -17.2137 -17.1928 -17.1477 -17.0554 -17.0528 -17.0109 -16.9955 -16.9224
   -16.8750 -16.8631 -16.8410 -16.8003 -16.7379 -16.6914 -16.5738 -16.5505
   -16.5221 -16.5103 -16.4229 -16.3128 -16.2773 -16.2459 -16.1091 -16.0793
   -14.8683 -14.7834  -9.7936  -7.4811  -7.4599  -5.9971  -5.5693  -5.5125
    -5.3619  -5.3537  -5.2963  -4.9989  -4.9395  -4.5895  -4.5855  -4.5501
    -4.5408  -4.4931  -4.3685  -4.2722  -4.2237  -4.2062  -4.1714  -4.1686
    -4.1644  -4.1565  -4.0918  -4.0871  -4.0106  -3.9878  -3.9569  -3.9152
    -3.8817  -3.8088  -3.7747  -3.7504  -3.7211  -3.6448  -3.6237  -3.5475
    -3.5460  -3.5203  -3.4528  -3.3342  -3.2034  -3.1682  -3.0646  -3.0060
    -2.9623  -2.8778  -2.8223  -2.8148  -2.7438  -2.7424  -2.7264  -2.6009
    -2.5636  -2.5083  -2.4363  -2.4004  -2.3725  -2.3537  -2.3254  -2.2837
    -2.2783  -2.2490  -2.2123  -2.1806  -2.1765  -2.0512  -1.9940  -1.8949
    -1.7524  -1.7502  -1.7235  -1.6819  -1.6544  -1.6429  -1.5656  -1.5441
    -1.4439  -1.4345  -1.4110  -1.3999  -1.3865  -1.2851  -1.2340  -1.2241
    -1.2031  -1.1342  -1.0737  -1.0180  -0.9189  -0.7448  -0.7150  -0.7108
    -0.6476  -0.5201  -0.3727  -0.2361  -0.1736  -0.0094   0.1173   0.1324
     1.5180   1.5469   1.8317   1.8686   1.8802   1.9001   2.0676   2.0872
     2.1217   2.2381   2.3572   2.3711   2.4064   2.4254   2.4620   2.4773
     2.5253   2.5627   2.6062   2.6525   2.6664   2.6773   2.7615   2.8042
     2.8668   2.8938   2.9858   2.9942   2.9955   3.0160   3.0637   3.0810
     3.0918   3.0957   3.1039   3.1383   3.2328   3.2969   3.3011   3.3190
     3.3531   3.3825   3.4165   3.5298   3.5330   3.6697   3.8770   3.9829
     3.9893   4.0421   4.0660   4.1790   4.2518   4.4587   4.5351   4.6563
     4.9041   4.9356   5.0104   5.1264   5.2050   5.3886   5.3941   5.4207
     5.4956   5.5814   5.6274   5.6359   5.7138   5.7311   5.7364   5.7561
     5.9209   5.9600   6.0102   6.0191   6.0969   6.1414   6.2041   6.2188
     6.4735   6.6168   6.7685   6.7840   6.8800   7.1627   7.2776   7.3053
     7.9111   7.9878   8.1607   8.4060   8.7023   8.9115   8.9144   8.9537
     9.2124   9.2587   9.2850   9.3539

[...]

          k =-0.0759 0.0000 0.0000 ( 34758 PWs)   bands (ev):

[...]

 ------ SPIN DOWN ----------

[...]

          k = 0.0506-0.0840 0.0000 ( 34628 PWs)   bands (ev):

[...]

          k =-0.0506 0.0560 0.0000 ( 34596 PWs)   bands (ev):

   -57.8153 -57.7978 -57.5094 -57.4634 -57.3816 -57.3628 -57.2706 -57.2530
   -57.1732 -57.1553 -57.1098 -57.0921 -56.8814 -56.8170 -56.2774 -56.2597
   -34.1660 -34.0978 -34.0835 -34.0005 -33.9707 -33.9649 -33.9545 -33.8061
   -33.7765 -33.7662 -33.7524 -33.7147 -33.7065 -33.6941 -33.6796 -33.6762
   -33.5914 -33.5794 -33.5765 -33.5381 -33.5367 -33.5168 -33.4837 -33.4643
   -33.4532 -33.4396 -33.4084 -33.3825 -33.3813 -33.3692 -33.3613 -33.3575
   -33.3414 -33.3285 -33.3048 -33.3025 -33.2676 -33.1470 -33.1351 -33.0877
   -33.0582 -33.0352 -32.6326 -32.6172 -32.6082 -32.4862 -32.4403 -32.4104
   -24.2359 -20.9923 -17.8735 -17.6281 -17.4536 -17.4318 -17.4136 -17.3410
   -17.3016 -17.2696 -17.1974 -17.1644 -17.0935 -17.0738 -17.0082 -16.9865
   -16.9841 -16.9154 -16.9054 -16.8409 -16.8012 -16.7746 -16.7077 -16.6620
   -16.5596 -16.4576 -16.4144 -16.3157 -16.3144 -16.2860 -16.2491 -16.1831
   -14.8935 -14.8572  -9.7910  -7.4851  -7.4595  -5.9932  -5.2155  -4.7835
    -4.7327  -4.7231  -4.6854  -4.6490  -4.6386  -4.6018  -4.4969  -4.4787
    -4.4537  -4.4377  -4.3462  -4.2937  -4.2769  -4.2715  -4.2295  -4.2091
    -4.1846  -4.1723  -4.1584  -4.1314  -4.0784  -4.0413  -4.0303  -4.0004
    -3.9451  -3.8853  -3.8199  -3.7842  -3.6814  -3.6528  -3.5093  -3.4831
    -3.4655  -3.3981  -3.3797  -3.2033  -3.1147  -3.0768  -3.0283  -2.9856
    -2.9633  -2.9117  -2.8918  -2.8561  -2.8071  -2.7659  -2.7132  -2.7079
    -2.6350  -2.6196  -2.5908  -2.5164  -2.4851  -2.4666  -2.4499  -2.4282
    -2.4000  -2.3576  -2.2874  -2.2752  -2.2507  -2.2249  -2.1770  -2.1648
    -2.0930  -2.0533  -2.0230  -1.9805  -1.9358  -1.8547  -1.7869  -1.7705
    -1.7026  -1.6025  -1.5290  -1.4837  -1.4499  -1.3716  -1.3351  -1.2278
    -1.1745  -1.1363  -1.0924  -1.0310  -0.9871  -0.9230  -0.9104  -0.8326
    -0.7991  -0.7847  -0.6560  -0.4655  -0.0543  -0.0172  -0.0038   0.0522
     1.7395   1.9356   1.9566   2.0176   2.0743   2.1137   2.1235   2.1767
     2.2236   2.2710   2.3861   2.4228   2.4309   2.4563   2.4764   2.5020
     2.5947   2.6107   2.6430   2.6663   2.6836   2.7271   2.7931   2.8221
     2.8944   2.9064   2.9462   2.9777   3.0259   3.0650   3.1914   3.2193
     3.2379   3.2666   3.3153   3.3284   3.3713   3.3891   3.4076   3.4679
     3.5465   3.5805   3.6100   3.6907   3.7405   3.7711   3.7812   3.7979
     3.8398   3.9719   4.0241   4.1507   4.2113   4.4527   4.6478   4.6784
     4.7504   4.7530   4.8980   5.0024   5.0742   5.1420   5.2115   5.2369
     5.3082   5.4660   5.5677   5.6357   5.6976   5.7412   5.8324   5.9723
     6.0156   6.1168   6.1669   6.2117   6.2568   6.3052   6.4679   6.4866
     6.5513   6.5925   6.6540   6.6826   6.8430   6.8770   6.9797   7.3056
     7.3293   7.7258   7.7632   8.0196   8.1002   8.1779   8.5839   8.6732
     8.8421   8.9145   9.1438   9.3673

     the Fermi energy is     0.8658 ev

!    total energy              =   -3044.95629757 Ry
     Harris-Foulkes estimate   =   -3044.95629743 Ry
     estimated scf accuracy    <       0.00000055 Ry

     The total energy is the sum of the following terms:

     one-electron contribution =  -40855.48651151 Ry
     hartree contribution      =   20500.06044137 Ry
     xc contribution           =    -557.16150614 Ry
     ewald contribution        =   17867.63148430 Ry
     smearing contrib. (-TS)   =      -0.00020560 Ry

     total magnetization       =     0.00 Bohr mag/cell
     absolute magnetization    =     0.00 Bohr mag/cell

     convergence has been achieved in   9 iterations

     Forces acting on atoms (Ry/au):

     negative rho (up, down):  1.158E-02 1.158E-02
     atom    1 type  1   force =    -0.00008538    0.00030362   -0.13600791
     atom    2 type  2   force =     0.00010430   -0.00008267    0.07518133
     atom    3 type  1   force =     0.00126896    0.00108724   -0.05987494
     atom    4 type  2   force =     0.00660917   -0.00007060    0.00968755
     atom    5 type  1   force =    -0.00131884   -0.00012409   -0.00002384
     atom    6 type  2   force =    -0.00184496   -0.00353495   -0.00898311
     atom    7 type  1   force =     0.01097471    0.00779731   -0.01693944
     atom    8 type  2   force =     0.00048764   -0.00016692    0.00063931
     atom    9 type  1   force =     0.00013013    0.00034899   -0.13607795
     atom   10 type  2   force =     0.00016713   -0.00003402    0.07512835
     atom   11 type  1   force =     0.00126259   -0.00086573   -0.06000719
     atom   12 type  2   force =     0.00604725   -0.00011551    0.00855401
     atom   13 type  1   force =     0.00013070   -0.00017575   -0.00037918
     atom   14 type  2   force =    -0.00198819    0.00293514   -0.00902233
     atom   15 type  1   force =     0.01122978   -0.00794845   -0.01641189
     atom   16 type  2   force =     0.00707388    0.00001125    0.01070234
     atom   17 type  2   force =    -0.00002602   -0.00005706    0.08000936
     atom   18 type  1   force =    -0.00006222    0.00022625    0.11908214
     atom   19 type  2   force =     0.00039040    0.00018357   -0.06811093
     atom   20 type  2   force =    -0.06269130    0.00004560   -0.03209931
     atom   21 type  2   force =     0.06273985    0.00014883   -0.03257283
     atom   22 type  1   force =    -0.00049140   -0.00012523    0.06427867
     atom   23 type  2   force =     0.00015678    0.00061616   -0.00264032
     atom   24 type  2   force =     0.00049647    0.00003684   -0.02241136
     atom   25 type  2   force =    -0.00645299   -0.00025939    0.00824399
     atom   26 type  1   force =    -0.00011389   -0.00005607    0.00254488
     atom   27 type  2   force =     0.00253914   -0.00144952   -0.00243210
     atom   28 type  2   force =    -0.00003935   -0.00002541   -0.00147466
     atom   29 type  2   force =     0.00011890   -0.00007132   -0.00052902
     atom   30 type  1   force =     0.00576330    0.00043769   -0.00067886
     atom   31 type  2   force =    -0.00212437    0.00159725    0.00104112
     atom   32 type  2   force =     0.00158213   -0.00009876    0.00185855
     atom   33 type  2   force =    -0.00000197    0.00015091    0.08007953
     atom   34 type  1   force =    -0.00007759    0.00023227    0.11909021
     atom   35 type  2   force =     0.00035794    0.00032219   -0.06806167
     atom   36 type  2   force =    -0.06268788    0.00009531   -0.03230866
     atom   37 type  2   force =     0.06285333    0.00017223   -0.03206190
     atom   38 type  1   force =    -0.00069700    0.00000425    0.06411518
     atom   39 type  2   force =     0.00019484   -0.00082167   -0.00262223
     atom   40 type  2   force =     0.00060453   -0.00228015   -0.02256305
     atom   41 type  2   force =    -0.00619455   -0.00031492    0.00764644
     atom   42 type  1   force =    -0.00010637   -0.00009507    0.00249402
     atom   43 type  2   force =     0.00253098    0.00138454   -0.00240311
     atom   44 type  2   force =     0.00035923   -0.00012611   -0.00071515
     atom   45 type  2   force =    -0.00022523   -0.00005018   -0.00094330
     atom   46 type  1   force =    -0.01908369    0.00033417   -0.00503010
     atom   47 type  2   force =    -0.00211748   -0.00144220    0.00114912
     atom   48 type  2   force =    -0.00083378   -0.00155964   -0.02807096
     atom   49 type  2   force =    -0.04851843    0.01081806    0.17888909
     atom   50 type  3   force =    -0.03279466    0.00811910   -0.03616842
     atom   51 type  3   force =     0.06440349   -0.01545740   -0.07278944

     Total force =     0.429843     Total SCF correction =     0.001545
 !ASE

     Writing output data file calc.save

     General routines

     Parallel routines

   This run was terminated on:  17:54:47  10Mar2018

   JOB DONE.