     Program PWSCF v.5.1rc2 (svn rev. ) starts on 10Mar2018 at 14:14: 9

     Current dimensions of program PWSCF are:
     Max number of different atomic species (ntypx) = 10
     Max number of k-points (npk) =  40000
     Max angular momentum in pseudopotentials (lmaxx) =  3

     IMPORTANT: XC functional enforced from input :
     Exchange-correlation      = BEEF ( 1  4 27 13 2)
     Any further DFT definition will be discarded
     Please, verify this is what you really want

     Subspace diagonalization in iterative solution of the eigenvalue problem:
     a serial algorithm will be used

     Generating pointlists ...
     new r_m :   0.4125 (alat units)  0.7795 (a.u.) for type    1
     new r_m :   0.4125 (alat units)  0.7795 (a.u.) for type    2
     new r_m :   0.4125 (alat units)  0.7795 (a.u.) for type    3

     bravais-lattice index     =            0
     lattice parameter (alat)  =       1.8897  a.u.
     unit-cell volume          =    7990.9933 (a.u.)^3
     number of atoms/cell      =           51
     number of atomic types    =            3
     number of electrons       =       400.00
     number of Kohn-Sham states=          300
     kinetic-energy cutoff     =      40.4243  Ry
     charge density cutoff     =     404.2426  Ry
     convergence threshold     =      7.3E-07
     mixing beta               =       0.1000
     number of iterations used =           10  plain     mixing
     Exchange-correlation      = BEEF ( 1  4 27 13 2)
     nstep                     =           50

     celldm(1)=   1.889726  celldm(2)=   0.000000  celldm(3)=   0.000000
     celldm(4)=   0.000000  celldm(5)=   0.000000  celldm(6)=   0.000000

     crystal axes: (cart. coord. in units of alat)
               a(1) = (   6.590708   0.000000   0.000000 )
               a(2) = (   0.000000   5.950229   0.000000 )
               a(3) = (   0.000000   0.000000  30.195235 )

     reciprocal axes: (cart. coord. in units 2 pi/alat)
               b(1) = (  0.151729  0.000000  0.000000 )
               b(2) = (  0.000000  0.168061  0.000000 )
               b(3) = (  0.000000  0.000000  0.033118 )

     PseudoPot. # 1 for Ti read from file:
     /home/alatimer/bin/psp/esp_psp_w_gbrvRu/Ti.UPF
     MD5 check sum: 8e4df49b7f0d34bbd5052bf3f5ea0213
     Pseudo is Ultrasoft, Zval = 12.0
     Generated by new atomic code, or converted to UPF format
     Using radial grid of  851 points,  6 beta functions with:
                l(1) =   0
                l(2) =   0
                l(3) =   1
                l(4) =   1
                l(5) =   2
                l(6) =   2
     Q(r) pseudized with  8 coefficients,  rinner =    1.000   1.000   1.000
                                                       1.000   1.000

     PseudoPot. # 2 for  O read from file:
     /home/alatimer/bin/psp/esp_psp_w_gbrvRu/O.UPF
     MD5 check sum: e057bbcf3229fb5d8c36c0c92f9568b4
     Pseudo is Ultrasoft + core correction, Zval =  6.0
     Generated using "atomic" code by A. Dal Corso  v.5.0.2 svn rev. 9415
     Using radial grid of 1095 points,  4 beta functions with:
                l(1) =   0
                l(2) =   0
                l(3) =   1
                l(4) =   1
     Q(r) pseudized with 0 coefficients

     PseudoPot. # 3 for  N read from file:
     /home/alatimer/bin/psp/esp_psp_w_gbrvRu/N.UPF
     MD5 check sum: ed8b6a90f28a53b7d71920e7015d2dd6
     Pseudo is Ultrasoft + core correction, Zval =  5.0
     Generated using "atomic" code by A. Dal Corso  v.5.0.2 svn rev. 9415
     Using radial grid of 1085 points,  4 beta functions with:
                l(1) =   0
                l(2) =   0
                l(3) =   1
                l(4) =   1
     Q(r) pseudized with 0 coefficients

     vdW kernel table read from file vdW_kernel_table
     MD5 check sum: 095c7af220d748ca6e76c0b4c6cfb241

     atomic species   valence    mass     pseudopotential
        Ti1           12.00    47.88000     Ti( 1.00)
        O1             6.00    15.99940      O( 1.00)
        N1             5.00    14.00670      N( 1.00)

     Starting magnetic structure
     atomic species   magnetization
        Ti1          0.250
        O1           0.500
        N1           0.600

     No symmetry found

   Cartesian axes

     site n.     atom                  positions (alat units)
         1           Ti1 tau(   1) = (   1.6476770   0.7437786   2.6545865  )
         2           O1  tau(   2) = (   1.6476770   2.2313359   3.9361215  )
         3           Ti1 tau(   3) = (   1.6476770   2.2313359   5.9499405  )
         4           O1  tau(   4) = (   0.3661420   0.7437786   5.9499405  )
         5           Ti1 tau(   5) = (   1.5280591   0.7315068   9.1973351  )
         6           O1  tau(   6) = (   1.6613943   2.1836906  10.6091769  )
         7           Ti1 tau(   7) = (   1.6665780   2.2096385  12.4157880  )
         8           O1  tau(   8) = (   0.4439715   0.7264440  12.7601561  )
         9           Ti1 tau(   9) = (   1.6476770   3.7188931   2.6545865  )
        10           O1  tau(  10) = (   1.6476770   5.2064503   3.9361215  )
        11           Ti1 tau(  11) = (   1.6476770   5.2064503   5.9499405  )
        12           O1  tau(  12) = (   0.3661420   3.7188931   5.9499405  )
        13           Ti1 tau(  13) = (   1.5319291   3.7072436   9.2118370  )
        14           O1  tau(  14) = (   1.6575607   5.2126413  10.6087893  )
        15           Ti1 tau(  15) = (   1.6606453   5.1916961  12.4165775  )
        16           O1  tau(  16) = (   0.4123725   3.7022030  12.5882193  )
        17           O1  tau(  17) = (   1.6476770   2.2313359   1.3730516  )
        18           Ti1 tau(  18) = (   4.9430310   2.2313359   2.6545865  )
        19           O1  tau(  19) = (   4.9430310   2.2313359   4.6684056  )
        20           O1  tau(  20) = (   6.2245660   0.7437786   2.6545865  )
        21           O1  tau(  21) = (   3.6614961   0.7437786   2.6545865  )
        22           Ti1 tau(  22) = (   4.9430310   0.7437786   5.9499405  )
        23           O1  tau(  23) = (   1.6517842   2.2287041   8.0298356  )
        24           O1  tau(  24) = (   4.9430310   2.2313359   7.2314755  )
        25           O1  tau(  25) = (   2.9292120   0.7437786   5.9499405  )
        26           Ti1 tau(  26) = (   4.8605205   2.2076595   9.4238065  )
        27           O1  tau(  27) = (   4.9553550   2.1639423  11.2756624  )
        28           O1  tau(  28) = (   6.2690671   0.7288246   9.2688367  )
        29           O1  tau(  29) = (   3.6660957   0.7249325   9.2867299  )
        30           Ti1 tau(  30) = (   4.9284588   0.7282168  12.7798302  )
        31           O1  tau(  31) = (   4.9953437   2.2216212  13.8477397  )
        32           O1  tau(  32) = (   2.9112183   0.7266397  12.7651274  )
        33           O1  tau(  33) = (   1.6476770   5.2064503   1.3730516  )
        34           Ti1 tau(  34) = (   4.9430310   5.2064503   2.6545865  )
        35           O1  tau(  35) = (   4.9430310   5.2064503   4.6684056  )
        36           O1  tau(  36) = (   6.2245660   3.7188931   2.6545865  )
        37           O1  tau(  37) = (   3.6614961   3.7188931   2.6545865  )
        38           Ti1 tau(  38) = (   4.9430310   3.7188931   5.9499405  )
        39           O1  tau(  39) = (   1.6524867   5.1852222   8.0294571  )
        40           O1  tau(  40) = (   4.9430310   5.2064503   7.2314755  )
        41           O1  tau(  41) = (   2.9292120   3.7188931   5.9499405  )
        42           Ti1 tau(  42) = (   4.8610151   5.1886528   9.4241876  )
        43           O1  tau(  43) = (   4.9550983   5.2107439  11.2753448  )
        44           O1  tau(  44) = (   6.2713562   3.7024388   9.3047907  )
        45           O1  tau(  45) = (   3.6650622   3.7005085   9.3135888  )
        46           Ti1 tau(  46) = (   5.0160509   3.7038162  12.7585864  )
        47           O1  tau(  47) = (   4.9984032   5.1727849  13.8485277  )
        48           O1  tau(  48) = (   2.9655234   3.7049164  12.5317472  )
        49           O1  tau(  49) = (   2.2548149   3.7063572  14.5693114  )
        50           N1  tau(  50) = (   2.4020298   3.6667063  16.9951815  )
        51           N1  tau(  51) = (   2.1425646   3.6919273  15.8611024  )

     number of k points=    40  Fermi-Dirac smearing, width (Ry)=  0.0073
                       cart. coord. in units 2pi/alat
        k(    1) = (   0.0000000   0.0000000   0.0000000), wk =   0.0277778
        k(    2) = (   0.0000000   0.0280101   0.0000000), wk =   0.0555556
        k(    3) = (   0.0000000   0.0560203   0.0000000), wk =   0.0555556
        k(    4) = (   0.0000000  -0.0840304   0.0000000), wk =   0.0277778
        k(    5) = (   0.0252881   0.0000000   0.0000000), wk =   0.0555556
        k(    6) = (   0.0252881   0.0280101   0.0000000), wk =   0.0555556
        k(    7) = (   0.0252881   0.0560203   0.0000000), wk =   0.0555556
        k(    8) = (   0.0252881  -0.0840304   0.0000000), wk =   0.0555556
        k(    9) = (   0.0505763   0.0000000   0.0000000), wk =   0.0555556
        k(   10) = (   0.0505763   0.0280101   0.0000000), wk =   0.0555556
        k(   11) = (   0.0505763   0.0560203   0.0000000), wk =   0.0555556
        k(   12) = (   0.0505763  -0.0840304   0.0000000), wk =   0.0555556
        k(   13) = (  -0.0758644   0.0000000   0.0000000), wk =   0.0277778
        k(   14) = (  -0.0758644   0.0280101   0.0000000), wk =   0.0555556
        k(   15) = (  -0.0758644   0.0560203   0.0000000), wk =   0.0555556
        k(   16) = (  -0.0758644  -0.0840304   0.0000000), wk =   0.0277778
        k(   17) = (  -0.0252881   0.0280101   0.0000000), wk =   0.0555556
        k(   18) = (  -0.0252881   0.0560203   0.0000000), wk =   0.0555556
        k(   19) = (  -0.0505763   0.0280101   0.0000000), wk =   0.0555556
        k(   20) = (  -0.0505763   0.0560203   0.0000000), wk =   0.0555556
        k(   21) = (   0.0000000   0.0000000   0.0000000), wk =   0.0277778
        k(   22) = (   0.0000000   0.0280101   0.0000000), wk =   0.0555556
        k(   23) = (   0.0000000   0.0560203   0.0000000), wk =   0.0555556
        k(   24) = (   0.0000000  -0.0840304   0.0000000), wk =   0.0277778
        k(   25) = (   0.0252881   0.0000000   0.0000000), wk =   0.0555556
        k(   26) = (   0.0252881   0.0280101   0.0000000), wk =   0.0555556
        k(   27) = (   0.0252881   0.0560203   0.0000000), wk =   0.0555556
        k(   28) = (   0.0252881  -0.0840304   0.0000000), wk =   0.0555556
        k(   29) = (   0.0505763   0.0000000   0.0000000), wk =   0.0555556
        k(   30) = (   0.0505763   0.0280101   0.0000000), wk =   0.0555556
        k(   31) = (   0.0505763   0.0560203   0.0000000), wk =   0.0555556
        k(   32) = (   0.0505763  -0.0840304   0.0000000), wk =   0.0555556
        k(   33) = (  -0.0758644   0.0000000   0.0000000), wk =   0.0277778
        k(   34) = (  -0.0758644   0.0280101   0.0000000), wk =   0.0555556
        k(   35) = (  -0.0758644   0.0560203   0.0000000), wk =   0.0555556
        k(   36) = (  -0.0758644  -0.0840304   0.0000000), wk =   0.0277778
[...]
     atom:   36    charge:    2.0847    magn:   -0.0001    constr:    0.0000
     atom:   37    charge:    2.0847    magn:   -0.0001    constr:    0.0000
     atom:   38    charge:    3.1198    magn:   -0.0000    constr:    0.0000
     atom:   39    charge:    2.0913    magn:    0.0001    constr:    0.0000
     atom:   40    charge:    2.0775    magn:    0.0001    constr:    0.0000
     atom:   41    charge:    2.0869    magn:    0.0000    constr:    0.0000
     atom:   42    charge:    3.1182    magn:   -0.0001    constr:    0.0000
     atom:   43    charge:    2.0837    magn:    0.0002    constr:    0.0000
     atom:   44    charge:    2.0865    magn:    0.0001    constr:    0.0000
     atom:   45    charge:    2.0871    magn:    0.0001    constr:    0.0000
     atom:   46    charge:    3.1171    magn:   -0.0001    constr:    0.0000
     atom:   47    charge:    2.0796    magn:    0.0003    constr:    0.0000
     atom:   48    charge:    2.0835    magn:    0.0002    constr:    0.0000
     atom:   49    charge:    2.0498    magn:   -0.0000    constr:    0.0000
     atom:   50    charge:    1.2575    magn:   -0.0000    constr:    0.0000
     atom:   51    charge:    1.2761    magn:    0.0000    constr:    0.0000

     total energy              =   -3044.96178064 Ry
     Harris-Foulkes estimate   =   -3044.97894212 Ry
     estimated scf accuracy    <       0.10412112 Ry

     total magnetization       =     0.00 Bohr mag/cell
     absolute magnetization    =     0.01 Bohr mag/cell

[...]

     total energy              =   -3044.95168019 Ry
     Harris-Foulkes estimate   =   -3044.95168034 Ry
     estimated scf accuracy    <       0.00000211 Ry

[...]

     iteration # 10     ecut=    40.42 Ry     beta=0.10
     Davidson diagonalization with overlap
     ethr =  5.28E-10,  avg # of iterations =  2.0

     negative rho (up, down):  1.154E-02 1.154E-02

     Magnetic moment per site:
     atom:    1    charge:    3.1250    magn:   -0.0000    constr:    0.0000
     atom:    2    charge:    2.0894    magn:    0.0000    constr:    0.0000
     atom:    3    charge:    3.1196    magn:   -0.0000    constr:    0.0000
     atom:    4    charge:    2.0870    magn:    0.0000    constr:    0.0000
     atom:    5    charge:    3.1170    magn:   -0.0000    constr:    0.0000
     atom:    6    charge:    2.0917    magn:    0.0000    constr:    0.0000
     atom:    7    charge:    3.1185    magn:   -0.0000    constr:    0.0000
     atom:    8    charge:    2.0815    magn:    0.0000    constr:    0.0000
     atom:    9    charge:    3.1250    magn:   -0.0000    constr:    0.0000
     atom:   10    charge:    2.0894    magn:    0.0000    constr:    0.0000
     atom:   11    charge:    3.1196    magn:   -0.0000    constr:    0.0000
     atom:   12    charge:    2.0870    magn:    0.0000    constr:    0.0000
     atom:   13    charge:    3.1148    magn:   -0.0000    constr:    0.0000
     atom:   14    charge:    2.0911    magn:    0.0000    constr:    0.0000
     atom:   15    charge:    3.1194    magn:   -0.0000    constr:    0.0000
     atom:   16    charge:    2.0883    magn:    0.0000    constr:    0.0000
     atom:   17    charge:    2.0623    magn:    0.0000    constr:    0.0000
     atom:   18    charge:    3.1239    magn:   -0.0000    constr:    0.0000
     atom:   19    charge:    2.0878    magn:   -0.0000    constr:    0.0000
     atom:   20    charge:    2.0847    magn:   -0.0000    constr:    0.0000
     atom:   21    charge:    2.0847    magn:   -0.0000    constr:    0.0000
     atom:   22    charge:    3.1197    magn:   -0.0000    constr:    0.0000
     atom:   23    charge:    2.0908    magn:    0.0000    constr:    0.0000
     atom:   24    charge:    2.0777    magn:    0.0000    constr:    0.0000
     atom:   25    charge:    2.0869    magn:    0.0000    constr:    0.0000
     atom:   26    charge:    3.1165    magn:   -0.0000    constr:    0.0000
     atom:   27    charge:    2.0824    magn:    0.0000    constr:    0.0000
     atom:   28    charge:    2.0879    magn:    0.0000    constr:    0.0000
     atom:   29    charge:    2.0877    magn:    0.0000    constr:    0.0000
     atom:   30    charge:    3.1168    magn:   -0.0000    constr:    0.0000
     atom:   31    charge:    2.0815    magn:    0.0000    constr:    0.0000
     atom:   32    charge:    2.0842    magn:    0.0000    constr:    0.0000
     atom:   33    charge:    2.0623    magn:    0.0000    constr:    0.0000
     atom:   34    charge:    3.1239    magn:   -0.0000    constr:    0.0000
     atom:   35    charge:    2.0878    magn:   -0.0000    constr:    0.0000
     atom:   36    charge:    2.0847    magn:   -0.0000    constr:    0.0000
     atom:   37    charge:    2.0847    magn:   -0.0000    constr:    0.0000
     atom:   38    charge:    3.1197    magn:   -0.0000    constr:    0.0000
     atom:   39    charge:    2.0912    magn:    0.0000    constr:    0.0000
     atom:   40    charge:    2.0777    magn:    0.0000    constr:    0.0000
     atom:   41    charge:    2.0869    magn:    0.0000    constr:    0.0000
     atom:   42    charge:    3.1181    magn:   -0.0000    constr:    0.0000
     atom:   43    charge:    2.0838    magn:    0.0000    constr:    0.0000
     atom:   44    charge:    2.0865    magn:    0.0000    constr:    0.0000
     atom:   45    charge:    2.0871    magn:    0.0000    constr:    0.0000
     atom:   46    charge:    3.1171    magn:   -0.0000    constr:    0.0000
     atom:   47    charge:    2.0796    magn:    0.0000    constr:    0.0000
     atom:   48    charge:    2.0836    magn:    0.0000    constr:    0.0000
     atom:   49    charge:    2.0509    magn:    0.0000    constr:    0.0000
     atom:   50    charge:    1.2432    magn:   -0.0000    constr:    0.0000
     atom:   51    charge:    1.2715    magn:    0.0000    constr:    0.0000

     End of self-consistent calculation

 ------ SPIN UP ------------

          k = 0.0000 0.0000 0.0000 ( 34665 PWs)   bands (ev):

   -57.8380 -57.8030 -57.5310 -57.4755 -57.4097 -57.3734 -57.2944 -57.2591
   -57.1970 -57.1617 -57.1351 -57.0998 -56.8999 -56.8282 -56.2997 -56.2644
   -34.2743 -34.1191 -34.0906 -34.0780 -34.0395 -33.9452 -33.8855 -33.8844
   -33.8463 -33.7879 -33.7527 -33.7430 -33.7380 -33.7060 -33.6882 -33.6864
   -33.6672 -33.6575 -33.6389 -33.5729 -33.5462 -33.4805 -33.4758 -33.4551
   -33.4481 -33.4457 -33.4037 -33.4009 -33.3948 -33.3769 -33.3725 -33.3522
   -33.3309 -33.3251 -33.2959 -33.2917 -33.2665 -33.1615 -33.1564 -33.1008
   -33.0554 -32.9542 -32.7184 -32.6509 -32.6248 -32.5224 -32.4307 -32.3224
   -23.9968 -20.7290 -18.1946 -17.9908 -17.7709 -17.6472 -17.5145 -17.5124
   -17.2293 -17.2067 -17.1651 -17.0701 -17.0696 -17.0247 -17.0144 -16.9392
   -16.8919 -16.8784 -16.8587 -16.8174 -16.7518 -16.7065 -16.5909 -16.5648
   -16.5379 -16.5295 -16.4381 -16.3272 -16.2925 -16.2609 -16.1240 -16.0937
   -14.8817 -14.7969  -9.8599  -7.2700  -7.2610  -6.0203  -5.5857  -5.5269
    -5.3790  -5.3709  -5.3116  -5.0158  -4.9545  -4.6063  -4.6004  -4.5659
    -4.5582  -4.5091  -4.3826  -4.2886  -4.2403  -4.2225  -4.1864  -4.1844
    -4.1784  -4.1719  -4.1064  -4.1010  -4.0267  -4.0023  -3.9720  -3.9320
    -3.8961  -3.8274  -3.7900  -3.7660  -3.7375  -3.6594  -3.6386  -3.5625
    -3.5608  -3.5356  -3.4673  -3.3485  -3.2183  -3.1834  -3.0777  -3.0199
    -2.9623  -2.8950  -2.8315  -2.8022  -2.7592  -2.7587  -2.7405  -2.6149
    -2.5787  -2.5231  -2.4510  -2.4160  -2.3878  -2.3705  -2.3394  -2.2999
    -2.2925  -2.2659  -2.2277  -2.1960  -2.1905  -2.0664  -2.0089  -1.9113
    -1.7699  -1.7647  -1.7419  -1.6972  -1.6709  -1.6581  -1.5810  -1.5600
    -1.4591  -1.4504  -1.4271  -1.4169  -1.3983  -1.3019  -1.2501  -1.2395
    -1.2182  -1.1500  -1.0897  -1.0344  -0.9344  -0.7600  -0.7292  -0.7259
    -0.6645  -0.5365  -0.3859  -0.2498  -0.1895  -0.0232   0.1037   0.1188
     1.5040   1.5327   1.8164   1.8498   1.8661   1.8828   2.0501   2.0719
     2.1055   2.2209   2.3411   2.3554   2.3925   2.4103   2.4451   2.4552
     2.5087   2.5266   2.5471   2.6274   2.6500   2.6607   2.7350   2.7859
     2.8463   2.8760   2.9693   2.9783   2.9795   2.9991   3.0480   3.0635
     3.0780   3.0802   3.0887   3.1242   3.1445   3.2196   3.2831   3.2870
     3.3370   3.3681   3.3997   3.5139   3.5166   3.6530   3.8616   3.9312
     3.9684   4.0283   4.0340   4.1625   4.2379   4.4446   4.5143   4.6406
     4.8881   4.9117   4.9933   5.1132   5.1910   5.3750   5.3802   5.4056
     5.4774   5.5646   5.6092   5.6209   5.6972   5.7142   5.7214   5.7575
     5.9069   5.9554   5.9964   6.0001   6.0806   6.1260   6.2007   6.2037
     6.4579   6.6132   6.7547   6.7723   6.8662   7.1129   7.1489   7.2824
     7.9220   7.9899   8.1588   8.4139   8.6907   8.9054   8.9446   8.9543
     9.2261   9.2613   9.2753   9.3599

[...]

          k =-0.0759 0.0000 0.0000 ( 34758 PWs)   bands (ev):

[...]

 ------ SPIN DOWN ----------

[...]

          k = 0.0506-0.0840 0.0000 ( 34628 PWs)   bands (ev):

[...]

          k =-0.0506 0.0560 0.0000 ( 34596 PWs)   bands (ev):

   -57.8293 -57.8118 -57.5263 -57.4804 -57.4013 -57.3820 -57.2856 -57.2680
   -57.1883 -57.1705 -57.1265 -57.1087 -56.8961 -56.8323 -56.2911 -56.2734
   -34.1800 -34.1118 -34.0975 -34.0145 -33.9847 -33.9818 -33.9685 -33.8241
   -33.7953 -33.7842 -33.7710 -33.7317 -33.7247 -33.7115 -33.6962 -33.6920
   -33.6109 -33.5957 -33.5945 -33.5562 -33.5546 -33.5319 -33.4987 -33.4794
   -33.4682 -33.4547 -33.4235 -33.3984 -33.3972 -33.3843 -33.3764 -33.3726
   -33.3581 -33.3452 -33.3213 -33.3183 -33.2830 -33.1622 -33.1499 -33.1037
   -33.0733 -33.0501 -32.6463 -32.6309 -32.6219 -32.4999 -32.4540 -32.4241
   -23.9967 -20.7285 -17.8908 -17.6424 -17.4718 -17.4497 -17.4301 -17.3569
   -17.3156 -17.2865 -17.2137 -17.1789 -17.1116 -17.0896 -17.0250 -17.0011
   -16.9986 -16.9318 -16.9215 -16.8599 -16.8180 -16.7916 -16.7228 -16.6771
   -16.5770 -16.4740 -16.4287 -16.3309 -16.3289 -16.3009 -16.2633 -16.1979
   -14.9069 -14.8707  -9.8573  -7.2752  -7.2592  -6.0163  -5.2327  -4.7976
    -4.7481  -4.7402  -4.7032  -4.6653  -4.6553  -4.6179  -4.5139  -4.4947
    -4.4700  -4.4521  -4.3608  -4.3105  -4.2911  -4.2871  -4.2457  -4.2252
    -4.1999  -4.1885  -4.1741  -4.1468  -4.0938  -4.0566  -4.0459  -4.0168
    -3.9605  -3.9003  -3.8347  -3.7991  -3.6966  -3.6676  -3.5247  -3.4984
    -3.4810  -3.4134  -3.3946  -3.2148  -3.1251  -3.0915  -3.0410  -3.0004
    -2.9622  -2.9257  -2.9007  -2.8709  -2.8181  -2.7820  -2.7275  -2.7223
    -2.6466  -2.6339  -2.6052  -2.5295  -2.4993  -2.4817  -2.4625  -2.4407
    -2.4148  -2.3735  -2.3036  -2.2903  -2.2673  -2.2396  -2.1945  -2.1803
    -2.1086  -2.0684  -2.0388  -1.9975  -1.9510  -1.8699  -1.8024  -1.7864
    -1.7179  -1.6178  -1.5441  -1.4979  -1.4649  -1.3869  -1.3515  -1.2439
    -1.1895  -1.1508  -1.1080  -1.0475  -1.0027  -0.9392  -0.9263  -0.8500
    -0.8135  -0.7998  -0.6731  -0.4812  -0.0679  -0.0307  -0.0173   0.0386
     1.7253   1.9165   1.9425   2.0000   2.0578   2.0986   2.1057   2.1601
     2.2074   2.2564   2.3683   2.4062   2.4148   2.4395   2.4601   2.4822
     2.5577   2.5866   2.6106   2.6321   2.6538   2.7053   2.7755   2.8047
     2.8752   2.8893   2.9286   2.9590   3.0084   3.0447   3.1363   3.1822
     3.2091   3.2492   3.2766   3.3099   3.3442   3.3705   3.3786   3.4464
     3.5087   3.5455   3.5954   3.6694   3.7247   3.7567   3.7655   3.7817
     3.8208   3.9580   4.0096   4.1366   4.1839   4.4260   4.6306   4.6643
     4.7337   4.7370   4.8807   4.9858   5.0578   5.1278   5.1952   5.2194
     5.2912   5.4498   5.5530   5.6178   5.6909   5.7262   5.8156   5.9569
     5.9976   6.0999   6.1550   6.1943   6.2400   6.2886   6.4530   6.4714
     6.5412   6.5785   6.6531   6.6688   6.7936   6.8352   6.9666   7.3149
     7.3187   7.7198   7.7681   8.0275   8.1041   8.1832   8.5824   8.6752
     8.8310   8.9152   9.1517   9.3709

     the Fermi energy is     0.8517 ev

!    total energy              =   -3044.95168007 Ry
     Harris-Foulkes estimate   =   -3044.95168034 Ry
     estimated scf accuracy    <       0.00000069 Ry

     The total energy is the sum of the following terms:

     one-electron contribution =  -40846.23373989 Ry
     hartree contribution      =   20495.24262339 Ry
     xc contribution           =    -557.09947458 Ry
     ewald contribution        =   17863.13911749 Ry
     smearing contrib. (-TS)   =      -0.00020647 Ry

     total magnetization       =     0.00 Bohr mag/cell
     absolute magnetization    =     0.00 Bohr mag/cell

     convergence has been achieved in  10 iterations

     Forces acting on atoms (Ry/au):

     negative rho (up, down):  1.154E-02 1.154E-02
     atom    1 type  1   force =    -0.00008389    0.00030578   -0.13608619
     atom    2 type  2   force =     0.00010448   -0.00007943    0.07525051
     atom    3 type  1   force =     0.00126985    0.00109306   -0.06000199
     atom    4 type  2   force =     0.00661140   -0.00006828    0.00970506
     atom    5 type  1   force =    -0.00133185   -0.00014214   -0.00017293
     atom    6 type  2   force =    -0.00182528   -0.00351259   -0.00877218
     atom    7 type  1   force =     0.01084225    0.00736617   -0.01706408
     atom    8 type  2   force =     0.00060695   -0.00012938    0.00050519
     atom    9 type  1   force =     0.00013056    0.00035383   -0.13615602
     atom   10 type  2   force =     0.00016633   -0.00003399    0.07519669
     atom   11 type  1   force =     0.00126586   -0.00086816   -0.06013244
     atom   12 type  2   force =     0.00604896   -0.00010995    0.00857426
     atom   13 type  1   force =     0.00012399   -0.00015804   -0.00053268
     atom   14 type  2   force =    -0.00200693    0.00293822   -0.00883621
     atom   15 type  1   force =     0.01100620   -0.00717691   -0.01735704
     atom   16 type  2   force =     0.00745023    0.00009175    0.01097605
     atom   17 type  2   force =    -0.00002562   -0.00005743    0.08007559
     atom   18 type  1   force =    -0.00006130    0.00022734    0.11901484
     atom   19 type  2   force =     0.00039166    0.00018862   -0.06805189
     atom   20 type  2   force =    -0.06269468    0.00005023   -0.03208348
     atom   21 type  2   force =     0.06274325    0.00015143   -0.03255171
     atom   22 type  1   force =    -0.00049167   -0.00012285    0.06419681
     atom   23 type  2   force =     0.00015377    0.00061735   -0.00254707
     atom   24 type  2   force =     0.00049650    0.00004026   -0.02235726
     atom   25 type  2   force =    -0.00645089   -0.00025819    0.00826189
     atom   26 type  1   force =    -0.00011577   -0.00005592    0.00246088
     atom   27 type  2   force =     0.00252501   -0.00139124   -0.00245390
     atom   28 type  2   force =     0.00000146   -0.00001725   -0.00146137
     atom   29 type  2   force =     0.00008812   -0.00005461   -0.00052137
     atom   30 type  1   force =     0.00580255    0.00036738   -0.00038180
     atom   31 type  2   force =    -0.00217409    0.00167672    0.00075152
     atom   32 type  2   force =     0.00145325   -0.00009685    0.00179028
     atom   33 type  2   force =     0.00000056    0.00015325    0.08014539
     atom   34 type  1   force =    -0.00007706    0.00023630    0.11902107
     atom   35 type  2   force =     0.00035718    0.00032545   -0.06800445
     atom   36 type  2   force =    -0.06269058    0.00009794   -0.03229051
     atom   37 type  2   force =     0.06285629    0.00017357   -0.03204257
     atom   38 type  1   force =    -0.00069639    0.00000918    0.06403260
     atom   39 type  2   force =     0.00018898   -0.00081870   -0.00253396
     atom   40 type  2   force =     0.00060602   -0.00227730   -0.02251167
     atom   41 type  2   force =    -0.00619484   -0.00030912    0.00766583
     atom   42 type  1   force =    -0.00010314   -0.00008273    0.00246248
     atom   43 type  2   force =     0.00257336    0.00137870   -0.00247963
     atom   44 type  2   force =     0.00039700   -0.00012617   -0.00069718
     atom   45 type  2   force =    -0.00025511   -0.00006262   -0.00093815
     atom   46 type  1   force =    -0.01899759    0.00042661   -0.00470755
     atom   47 type  2   force =    -0.00218448   -0.00154437    0.00076502
     atom   48 type  2   force =    -0.00083853   -0.00044692   -0.02784622
     atom   49 type  2   force =    -0.04709352    0.00047257    0.18728694
     atom   50 type  3   force =    -0.05378948    0.00406408   -0.14304213
     atom   51 type  3   force =     0.08392068   -0.00280464    0.02647673

     Total force =     0.454538     Total SCF correction =     0.001679
 !ASE

     Writing output data file calc.save

     General routines

     Parallel routines

   This run was terminated on:  15: 1:27  10Mar2018

   JOB DONE.