     Program PWSCF v.5.1rc2 (svn rev. ) starts on 10Feb2018 at 17:15:25

     Current dimensions of program PWSCF are:
     Max number of different atomic species (ntypx) = 10
     Max number of k-points (npk) =  40000
     Max angular momentum in pseudopotentials (lmaxx) =  3

     IMPORTANT: XC functional enforced from input :
     Exchange-correlation      = BEEF ( 1  4 27 13 2)
     Any further DFT definition will be discarded
     Please, verify this is what you really want

     Subspace diagonalization in iterative solution of the eigenvalue problem:
     a serial algorithm will be used

     Generating pointlists ...
     new r_m :   0.4125 (alat units)  0.7795 (a.u.) for type    1
     new r_m :   0.4101 (alat units)  0.7751 (a.u.) for type    2
     new r_m :   0.4101 (alat units)  0.7751 (a.u.) for type    3

     bravais-lattice index     =            0
     lattice parameter (alat)  =       1.8897  a.u.
     unit-cell volume          =    7990.9933 (a.u.)^3
     number of atoms/cell      =           50
     number of atomic types    =            3
     number of electrons       =       391.00
     number of Kohn-Sham states=          295
     kinetic-energy cutoff     =      40.4243  Ry
     charge density cutoff     =     404.2426  Ry
     convergence threshold     =      7.3E-07
     mixing beta               =       0.1000
     number of iterations used =           10  plain     mixing
     Exchange-correlation      = BEEF ( 1  4 27 13 2)
     nstep                     =           50

     celldm(1)=   1.889726  celldm(2)=   0.000000  celldm(3)=   0.000000
     celldm(4)=   0.000000  celldm(5)=   0.000000  celldm(6)=   0.000000

     crystal axes: (cart. coord. in units of alat)
               a(1) = (   6.590708   0.000000   0.000000 )
               a(2) = (   0.000000   5.950229   0.000000 )
               a(3) = (   0.000000   0.000000  30.195235 )

     reciprocal axes: (cart. coord. in units 2 pi/alat)
               b(1) = (  0.151729  0.000000  0.000000 )
               b(2) = (  0.000000  0.168061  0.000000 )
               b(3) = (  0.000000  0.000000  0.033118 )

     PseudoPot. # 1 for Ti read from file:
     /home/alatimer/bin/psp/esp_psp_w_gbrvRu/Ti.UPF
     MD5 check sum: 8e4df49b7f0d34bbd5052bf3f5ea0213
     Pseudo is Ultrasoft, Zval = 12.0
     Generated by new atomic code, or converted to UPF format
     Using radial grid of  851 points,  6 beta functions with:
                l(1) =   0
                l(2) =   0
                l(3) =   1
                l(4) =   1
                l(5) =   2
                l(6) =   2
     Q(r) pseudized with  8 coefficients,  rinner =    1.000   1.000   1.000
                                                       1.000   1.000

     PseudoPot. # 2 for  O read from file:
     /home/alatimer/bin/psp/esp_psp_w_gbrvRu/O.UPF
     MD5 check sum: e057bbcf3229fb5d8c36c0c92f9568b4
     Pseudo is Ultrasoft + core correction, Zval =  6.0
     Generated using "atomic" code by A. Dal Corso  v.5.0.2 svn rev. 9415
     Using radial grid of 1095 points,  4 beta functions with:
                l(1) =   0
                l(2) =   0
                l(3) =   1
                l(4) =   1
     Q(r) pseudized with 0 coefficients

     PseudoPot. # 3 for  H read from file:
     /home/alatimer/bin/psp/esp_psp_w_gbrvRu/H.UPF
     MD5 check sum: bd57da0722753ddfd9833a65b40bb853
     Pseudo is Ultrasoft, Zval =  1.0
     Generated using "atomic" code by A. Dal Corso  v.5.0.2 svn rev. 9415
     Using radial grid of  929 points,  2 beta functions with:
                l(1) =   0
                l(2) =   0
     Q(r) pseudized with 0 coefficients

     vdW kernel table read from file vdW_kernel_table
     MD5 check sum: 095c7af220d748ca6e76c0b4c6cfb241

     atomic species   valence    mass     pseudopotential
        Ti1           12.00    47.88000     Ti( 1.00)
        O1             6.00    15.99940      O( 1.00)
        H1             1.00     1.00794      H( 1.00)

     Starting magnetic structure
     atomic species   magnetization
        Ti1          0.250
        O1           0.500
        H1           0.000

      2 Sym. Ops. (no inversion) found ( 1 have fractional translation)

   Cartesian axes

     site n.     atom                  positions (alat units)
         1           Ti1 tau(   1) = (   1.6476770   0.7437786   2.6545865  )
         2           O1  tau(   2) = (   1.6476770   2.2313359   3.9361215  )
         3           Ti1 tau(   3) = (   1.6476770   2.2313359   5.9499405  )
         4           O1  tau(   4) = (   0.3661420   0.7437786   5.9499405  )
         5           Ti1 tau(   5) = (   1.6423058   0.7993178   9.2289010  )
         6           O1  tau(   6) = (   1.6406404   2.2313359  10.4535548  )
         7           Ti1 tau(   7) = (   1.6373334   2.2313359  13.0586656  )
         8           O1  tau(   8) = (   0.3716334   0.7231912  12.7369480  )
         9           Ti1 tau(   9) = (   1.6476770   3.7188931   2.6545865  )
        10           O1  tau(  10) = (   1.6476770   5.2064503   3.9361215  )
        11           Ti1 tau(  11) = (   1.6476770   5.2064503   5.9499405  )
        12           O1  tau(  12) = (   0.3661420   3.7188931   5.9499405  )
        13           Ti1 tau(  13) = (   1.6423059   3.6633529   9.2289023  )
        14           O1  tau(  14) = (   1.6396028   5.2064504  10.5374954  )
        15           Ti1 tau(  15) = (   1.6366369   5.2064504  12.3426698  )
        16           O1  tau(  16) = (   0.3716333   3.7394800  12.7369475  )
        17           O1  tau(  17) = (   1.6476770   2.2313359   1.3730516  )
        18           Ti1 tau(  18) = (   4.9430310   2.2313359   2.6545865  )
        19           O1  tau(  19) = (   4.9430310   2.2313359   4.6684056  )
        20           O1  tau(  20) = (   6.2245660   0.7437786   2.6545865  )
        21           O1  tau(  21) = (   3.6614961   0.7437786   2.6545865  )
        22           Ti1 tau(  22) = (   4.9430310   0.7437786   5.9499405  )
        23           O1  tau(  23) = (   1.6444126   2.2313359   7.9291264  )
        24           O1  tau(  24) = (   4.9430310   2.2313359   7.2314755  )
        25           O1  tau(  25) = (   2.9292120   0.7437786   5.9499405  )
        26           Ti1 tau(  26) = (   4.9374203   2.2313360   9.4425711  )
        27           O1  tau(  27) = (   4.9384755   2.2313359  11.2756104  )
        28           O1  tau(  28) = (   6.2333856   0.7395591   9.2701299  )
        29           O1  tau(  29) = (   3.6424277   0.7403199   9.2676498  )
        30           Ti1 tau(  30) = (   4.9388558   0.7382018  12.7898683  )
        31           O1  tau(  31) = (   4.8884434   2.2313358  13.8602379  )
        32           O1  tau(  32) = (   2.8718067   0.7224686  12.6922084  )
        33           O1  tau(  33) = (   1.6476770   5.2064503   1.3730516  )
        34           Ti1 tau(  34) = (   4.9430310   5.2064503   2.6545865  )
        35           O1  tau(  35) = (   4.9430310   5.2064503   4.6684056  )
        36           O1  tau(  36) = (   6.2245660   3.7188931   2.6545865  )
        37           O1  tau(  37) = (   3.6614961   3.7188931   2.6545865  )
        38           Ti1 tau(  38) = (   4.9430310   3.7188931   5.9499405  )
        39           O1  tau(  39) = (   1.6444418   5.2064506   7.9393866  )
        40           O1  tau(  40) = (   4.9430310   5.2064503   7.2314755  )
        41           O1  tau(  41) = (   2.9292120   3.7188931   5.9499405  )
        42           Ti1 tau(  42) = (   4.9387790   5.2064503   9.4241858  )
        43           O1  tau(  43) = (   4.9379278   5.2064504  11.2756977  )
        44           O1  tau(  44) = (   6.2333855   3.7231127   9.2701299  )
        45           O1  tau(  45) = (   3.6424278   3.7223520   9.2676499  )
        46           Ti1 tau(  46) = (   4.9388558   3.7244696  12.7898683  )
        47           O1  tau(  47) = (   4.8902929   5.2064502  13.8618696  )
        48           O1  tau(  48) = (   2.8718066   3.7402036  12.6922086  )
        49           O1  tau(  49) = (   1.7318258   2.2313358  14.8494317  )
        50           H1  tau(  50) = (   2.6007197   2.2313366  15.3328018  )

     number of k points=    32  Fermi-Dirac smearing, width (Ry)=  0.0073
                       cart. coord. in units 2pi/alat
        k(    1) = (   0.0000000   0.0000000   0.0000000), wk =   0.0277778
        k(    2) = (   0.0000000   0.0280101   0.0000000), wk =   0.0555556
        k(    3) = (   0.0000000   0.0560203   0.0000000), wk =   0.0555556
        k(    4) = (   0.0000000  -0.0840304   0.0000000), wk =   0.0277778
        k(    5) = (   0.0252881   0.0000000   0.0000000), wk =   0.0555556
        k(    6) = (   0.0252881   0.0280101   0.0000000), wk =   0.1111111
        k(    7) = (   0.0252881   0.0560203   0.0000000), wk =   0.1111111
        k(    8) = (   0.0252881  -0.0840304   0.0000000), wk =   0.0555556
        k(    9) = (   0.0505763   0.0000000   0.0000000), wk =   0.0555556
        k(   10) = (   0.0505763   0.0280101   0.0000000), wk =   0.1111111
        k(   11) = (   0.0505763   0.0560203   0.0000000), wk =   0.1111111
        k(   12) = (   0.0505763  -0.0840304   0.0000000), wk =   0.0555556
        k(   13) = (  -0.0758644   0.0000000   0.0000000), wk =   0.0277778
        k(   14) = (  -0.0758644   0.0280101   0.0000000), wk =   0.0555556
        k(   15) = (  -0.0758644   0.0560203   0.0000000), wk =   0.0555556
        k(   16) = (  -0.0758644  -0.0840304   0.0000000), wk =   0.0277778
        k(   17) = (   0.0000000   0.0000000   0.0000000), wk =   0.0277778
        k(   18) = (   0.0000000   0.0280101   0.0000000), wk =   0.0555556
        k(   19) = (   0.0000000   0.0560203   0.0000000), wk =   0.0555556
        k(   20) = (   0.0000000  -0.0840304   0.0000000), wk =   0.0277778
        k(   21) = (   0.0252881   0.0000000   0.0000000), wk =   0.0555556
        k(   22) = (   0.0252881   0.0280101   0.0000000), wk =   0.1111111
        k(   23) = (   0.0252881   0.0560203   0.0000000), wk =   0.1111111
        k(   24) = (   0.0252881  -0.0840304   0.0000000), wk =   0.0555556
        k(   25) = (   0.0505763   0.0000000   0.0000000), wk =   0.0555556
        k(   26) = (   0.0505763   0.0280101   0.0000000), wk =   0.1111111
        k(   27) = (   0.0505763   0.0560203   0.0000000), wk =   0.1111111
        k(   28) = (   0.0505763  -0.0840304   0.0000000), wk =   0.0555556
        k(   29) = (  -0.0758644   0.0000000   0.0000000), wk =   0.0277778
        k(   30) = (  -0.0758644   0.0280101   0.0000000), wk =   0.0555556
        k(   31) = (  -0.0758644   0.0560203   0.0000000), wk =   0.0555556
        k(   32) = (  -0.0758644  -0.0840304   0.0000000), wk =   0.0277778

     Largest allocated arrays     est. size (Mb)     dimensions
     Largest temporary arrays     est. size (Mb)     dimensions

     Check: negative/imaginary core charge=   -0.000049    0.000000

     The initial density is read from file :
     ./calc.save/charge-density.dat

     negative rho (up, down):  1.350E-02 1.350E-02

     *
     * You are using vdW-DF for exchange-correlation in this calculation.
[...]
     atom:   33    charge:    2.0363    magn:    0.0011    constr:    0.0000
     atom:   34    charge:    3.1239    magn:    0.0000    constr:    0.0000
     atom:   35    charge:    2.0608    magn:    0.0000    constr:    0.0000
     atom:   36    charge:    2.0606    magn:    0.0000    constr:    0.0000
     atom:   37    charge:    2.0606    magn:    0.0000    constr:    0.0000
     atom:   38    charge:    3.1199    magn:    0.0000    constr:    0.0000
     atom:   39    charge:    2.0563    magn:   -0.0001    constr:    0.0000
     atom:   40    charge:    2.0507    magn:   -0.0002    constr:    0.0000
     atom:   41    charge:    2.0623    magn:   -0.0000    constr:    0.0000
     atom:   42    charge:    3.1217    magn:    0.0001    constr:    0.0000
     atom:   43    charge:    2.0574    magn:   -0.0003    constr:    0.0000
     atom:   44    charge:    2.0593    magn:   -0.0002    constr:    0.0000
     atom:   45    charge:    2.0596    magn:   -0.0002    constr:    0.0000
     atom:   46    charge:    3.1193    magn:    0.0000    constr:    0.0000
     atom:   47    charge:    2.0567    magn:   -0.0001    constr:    0.0000
     atom:   48    charge:    2.0559    magn:   -0.0001    constr:    0.0000
     atom:   49    charge:    2.0639    magn:    0.0000    constr:    0.0000
     atom:   50    charge:    0.4146    magn:   -0.0000    constr:    0.0000

     total energy              =   -3005.55782518 Ry
     Harris-Foulkes estimate   =   -3005.57163455 Ry
     estimated scf accuracy    <       0.09174900 Ry

     total magnetization       =     0.00 Bohr mag/cell
     absolute magnetization    =     0.01 Bohr mag/cell

     iteration #  2     ecut=    40.42 Ry     beta=0.10
     Davidson diagonalization with overlap
     ethr =  2.35E-05,  avg # of iterations =  2.0

[...]

     total energy              =   -3005.52867704 Ry
     Harris-Foulkes estimate   =   -3005.52867694 Ry
     estimated scf accuracy    <       0.00000091 Ry

[...]

     iteration # 13     ecut=    40.42 Ry     beta=0.10
     Davidson diagonalization with overlap
     ethr =  2.33E-10,  avg # of iterations =  1.0

     negative rho (up, down):  1.350E-02 1.350E-02

     Magnetic moment per site:
     atom:    1    charge:    3.1244    magn:   -0.0001    constr:    0.0000
     atom:    2    charge:    2.0634    magn:    0.0001    constr:    0.0000
     atom:    3    charge:    3.1200    magn:   -0.0000    constr:    0.0000
     atom:    4    charge:    2.0623    magn:    0.0000    constr:    0.0000
     atom:    5    charge:    3.1144    magn:    0.0000    constr:    0.0000
     atom:    6    charge:    2.0539    magn:   -0.0000    constr:    0.0000
     atom:    7    charge:    3.1164    magn:    0.0000    constr:    0.0000
     atom:    8    charge:    2.0567    magn:   -0.0000    constr:    0.0000
     atom:    9    charge:    3.1244    magn:   -0.0001    constr:    0.0000
     atom:   10    charge:    2.0635    magn:    0.0001    constr:    0.0000
     atom:   11    charge:    3.1198    magn:   -0.0000    constr:    0.0000
     atom:   12    charge:    2.0623    magn:    0.0000    constr:    0.0000
     atom:   13    charge:    3.1144    magn:    0.0000    constr:    0.0000
     atom:   14    charge:    2.0703    magn:   -0.0000    constr:    0.0000
     atom:   15    charge:    3.1165    magn:    0.0000    constr:    0.0000
     atom:   16    charge:    2.0567    magn:   -0.0000    constr:    0.0000
     atom:   17    charge:    2.0362    magn:    0.0004    constr:    0.0000
     atom:   18    charge:    3.1239    magn:   -0.0000    constr:    0.0000
     atom:   19    charge:    2.0608    magn:    0.0000    constr:    0.0000
     atom:   20    charge:    2.0606    magn:    0.0000    constr:    0.0000
     atom:   21    charge:    2.0606    magn:    0.0000    constr:    0.0000
     atom:   22    charge:    3.1199    magn:    0.0000    constr:    0.0000
     atom:   23    charge:    2.0663    magn:   -0.0000    constr:    0.0000
     atom:   24    charge:    2.0503    magn:   -0.0000    constr:    0.0000
     atom:   25    charge:    2.0623    magn:    0.0000    constr:    0.0000
     atom:   26    charge:    3.1143    magn:    0.0000    constr:    0.0000
     atom:   27    charge:    2.0577    magn:   -0.0001    constr:    0.0000
     atom:   28    charge:    2.0593    magn:   -0.0000    constr:    0.0000
     atom:   29    charge:    2.0596    magn:   -0.0000    constr:    0.0000
     atom:   30    charge:    3.1193    magn:    0.0000    constr:    0.0000
     atom:   31    charge:    2.0569    magn:   -0.0000    constr:    0.0000
     atom:   32    charge:    2.0568    magn:   -0.0000    constr:    0.0000
     atom:   33    charge:    2.0362    magn:    0.0004    constr:    0.0000
     atom:   34    charge:    3.1239    magn:   -0.0000    constr:    0.0000
     atom:   35    charge:    2.0608    magn:    0.0000    constr:    0.0000
     atom:   36    charge:    2.0606    magn:    0.0000    constr:    0.0000
     atom:   37    charge:    2.0606    magn:    0.0000    constr:    0.0000
     atom:   38    charge:    3.1199    magn:    0.0000    constr:    0.0000
     atom:   39    charge:    2.0563    magn:   -0.0000    constr:    0.0000
     atom:   40    charge:    2.0508    magn:   -0.0000    constr:    0.0000
     atom:   41    charge:    2.0623    magn:    0.0000    constr:    0.0000
     atom:   42    charge:    3.1217    magn:    0.0000    constr:    0.0000
     atom:   43    charge:    2.0574    magn:   -0.0000    constr:    0.0000
     atom:   44    charge:    2.0593    magn:   -0.0000    constr:    0.0000
     atom:   45    charge:    2.0596    magn:   -0.0000    constr:    0.0000
     atom:   46    charge:    3.1193    magn:    0.0000    constr:    0.0000
     atom:   47    charge:    2.0568    magn:   -0.0000    constr:    0.0000
     atom:   48    charge:    2.0568    magn:   -0.0000    constr:    0.0000
     atom:   49    charge:    2.0626    magn:   -0.0000    constr:    0.0000
     atom:   50    charge:    0.3956    magn:   -0.0000    constr:    0.0000

     End of self-consistent calculation

 ------ SPIN UP ------------

          k = 0.0000 0.0000 0.0000 ( 34665 PWs)   bands (ev):

   -58.5081 -58.4731 -57.5971 -57.5674 -57.5614 -57.4847 -57.4705 -57.4309
   -57.3247 -57.2981 -57.2659 -57.2302 -57.1208 -57.0856 -57.0167 -56.9788
   -34.9530 -34.7771 -34.7483 -34.7144 -34.6194 -34.5626 -34.0963 -34.0520
   -34.0128 -33.8709 -33.8501 -33.7912 -33.7703 -33.7644 -33.7551 -33.7462
   -33.7399 -33.7167 -33.7031 -33.6968 -33.6935 -33.6726 -33.6619 -33.6578
   -33.6521 -33.6359 -33.6321 -33.5874 -33.5517 -33.5503 -33.5395 -33.4996
   -33.4984 -33.4915 -33.4618 -33.4478 -33.4361 -33.4350 -33.4070 -33.3869
   -33.3392 -33.2940 -33.2495 -33.2493 -33.2298 -33.2056 -33.1478 -33.0978
   -18.6718 -18.2488 -18.1040 -18.0050 -17.9137 -17.7445 -17.7317 -17.6237
   -17.5938 -17.5699 -17.4592 -17.2622 -17.2210 -17.2141 -17.1492 -17.0521
   -17.0309 -17.0096 -16.9413 -16.9001 -16.8496 -16.8135 -16.8101 -16.7861
   -16.6927 -16.6301 -16.6164 -16.5108 -16.4977 -16.3501 -16.2865 -15.8006
   -15.7403  -6.2499  -5.8822  -5.6949  -5.4984  -5.4165  -5.3143  -5.1894
    -5.1645  -5.0802  -4.9485  -4.8573  -4.8019  -4.7891  -4.7169  -4.6424
    -4.6144  -4.5456  -4.5319  -4.4193  -4.4162  -4.3608  -4.3438  -4.2501
    -4.2254  -4.1716  -4.1094  -4.0951  -4.0897  -4.0781  -3.9954  -3.9801
    -3.9117  -3.8378  -3.8329  -3.7444  -3.7338  -3.7298  -3.6216  -3.6180
    -3.5844  -3.4727  -3.4505  -3.4109  -3.2995  -3.1270  -3.0922  -3.0384
    -2.9714  -2.9598  -2.8977  -2.8842  -2.8779  -2.7696  -2.7535  -2.7377
    -2.6466  -2.5935  -2.5064  -2.4340  -2.4297  -2.3977  -2.3377  -2.2884
    -2.2342  -2.1869  -2.1721  -2.1238  -2.0835  -2.0761  -1.9296  -1.8444
    -1.8301  -1.8249  -1.8151  -1.7113  -1.6245  -1.5690  -1.5564  -1.5210
    -1.5180  -1.5039  -1.4538  -1.3683  -1.3476  -1.3271  -1.3108  -1.2868
    -1.2784  -1.1595  -1.0696  -0.9888  -0.9543  -0.8830  -0.8724  -0.8200
    -0.7532  -0.7186  -0.6682  -0.3739   0.8234   0.9207   1.2137   1.4964
     1.6040   1.6906   1.7195   1.8121   1.8441   1.9255   1.9549   2.0216
     2.0294   2.1735   2.1875   2.2592   2.2844   2.3137   2.3943   2.4174
     2.4655   2.4730   2.5093   2.5228   2.6056   2.6278   2.6727   2.7190
     2.7483   2.7522   2.8014   2.8306   2.8577   2.8761   2.8873   2.9960
     3.0121   3.0353   3.2093   3.2122   3.2404   3.2537   3.3495   3.4082
     3.4507   3.5011   3.5957   3.7458   3.8798   3.8927   4.0808   4.2719
     4.4036   4.4879   4.5048   4.6478   4.7986   4.9255   4.9630   5.0655
     5.1890   5.2019   5.2321   5.2474   5.3295   5.3381   5.3441   5.4592
     5.4803   5.5281   5.6921   5.7121   5.7845   5.8809   5.9055   5.9108
     6.0004   6.0441   6.2263   6.2901   6.3442   6.4036   6.5835   6.6109
     7.1017   7.7730   7.9911   8.0123   8.1675   8.2212   8.5759   8.7199
     8.7994   9.0632   9.1772   9.2230   9.3496   9.4579   9.6014

[...]

          k =-0.0759 0.0000 0.0000 ( 34758 PWs)   bands (ev):

[...]

 ------ SPIN DOWN ----------

[...]

          k = 0.0506-0.0840 0.0000 ( 34628 PWs)   bands (ev):

[...]

          k =-0.0759-0.0840 0.0000 ( 34556 PWs)   bands (ev):

   -58.4915 -58.4898 -57.5791 -57.5791 -57.5637 -57.4888 -57.4593 -57.4420
   -57.3144 -57.3084 -57.2521 -57.2439 -57.1037 -57.1037 -56.9986 -56.9969
   -34.7636 -34.7629 -34.7615 -34.7612 -34.6664 -34.6649 -33.9042 -33.9038
   -33.8982 -33.8824 -33.8458 -33.8037 -33.8037 -33.7919 -33.7746 -33.7727
   -33.7672 -33.7583 -33.7267 -33.6954 -33.6910 -33.6717 -33.6689 -33.6631
   -33.6476 -33.6229 -33.5765 -33.5657 -33.5646 -33.5513 -33.5354 -33.5179
   -33.4830 -33.4802 -33.4758 -33.4648 -33.4501 -33.4501 -33.3488 -33.3484
   -33.3453 -33.3354 -33.2952 -33.2949 -33.2423 -33.2413 -33.2367 -33.2295
   -18.0842 -18.0164 -18.0161 -17.9462 -17.9442 -17.7017 -17.6591 -17.6588
   -17.6568 -17.3868 -17.2590 -17.2506 -17.2480 -17.1580 -17.1512 -17.0961
   -17.0567 -17.0091 -16.9927 -16.9797 -16.9781 -16.9764 -16.9704 -16.7710
   -16.7491 -16.7344 -16.7323 -16.6431 -16.6410 -16.4671 -16.4427 -15.8506
   -15.8504  -5.8678  -5.0867  -5.0770  -5.0084  -5.0063  -4.8745  -4.8742
    -4.8701  -4.8640  -4.6206  -4.6156  -4.6117  -4.5478  -4.4861  -4.4155
    -4.4133  -4.4119  -4.3779  -4.3635  -4.3490  -4.3385  -4.3206  -4.2711
    -4.2677  -4.2381  -4.2372  -4.2211  -4.1113  -4.0558  -3.9947  -3.9740
    -3.9385  -3.8629  -3.8516  -3.8488  -3.7325  -3.6530  -3.6421  -3.6381
    -3.5143  -3.5126  -3.3587  -3.3553  -3.3465  -3.3111  -3.2417  -3.2072
    -3.1401  -3.1117  -3.0574  -3.0474  -3.0153  -3.0005  -2.9799  -2.9012
    -2.8542  -2.7612  -2.7247  -2.6827  -2.6399  -2.6094  -2.5760  -2.5546
    -2.5255  -2.4506  -2.4269  -2.4202  -2.3935  -2.3362  -2.2794  -2.2489
    -2.1355  -2.0658  -2.0519  -2.0411  -1.9219  -1.8517  -1.8416  -1.7018
    -1.6574  -1.6301  -1.6178  -1.5928  -1.3500  -1.3101  -1.2930  -1.2804
    -1.2539  -1.2069  -1.1265  -1.0372  -0.9808  -0.9476  -0.9344  -0.8978
    -0.8749  -0.8384  -0.7722  -0.7585   1.4004   1.4044   1.4160   1.4217
     1.7637   1.7644   1.8922   1.8940   2.0450   2.1017   2.1044   2.1585
     2.2313   2.2605   2.3549   2.4279   2.4348   2.5037   2.5392   2.5949
     2.6022   2.6322   2.7588   2.7590   2.7704   2.7868   2.8042   2.8348
     2.8819   2.9054   2.9495   3.0381   3.0414   3.0446   3.0670   3.0824
     3.1588   3.1938   3.1944   3.2364   3.2574   3.2808   3.2953   3.2982
     3.3629   3.3871   3.5385   3.6165   3.6858   3.6866   3.9396   3.9401
     4.3402   4.4235   4.4496   4.5094   4.6318   4.6609   4.7009   4.7676
     4.9574   4.9753   4.9847   4.9935   5.4701   5.4730   5.4908   5.7049
     5.7315   5.7338   5.7980   5.8154   5.8942   5.8984   5.9385   6.0399
     6.0824   6.0899   6.1681   6.2349   6.2936   6.3917   6.6785   7.1159
     7.4103   7.4220   7.4687   7.5306   7.7074   7.7099   7.8488   7.9265
     8.2666   8.2720   8.4443   8.5718   9.0540   9.0739   9.1856

     the Fermi energy is    -0.4899 ev

!    total energy              =   -3005.52867776 Ry
     Harris-Foulkes estimate   =   -3005.52867709 Ry
     estimated scf accuracy    <       0.00000013 Ry

     The total energy is the sum of the following terms:

     one-electron contribution =  -41015.10184252 Ry
     hartree contribution      =   20573.33106567 Ry
     xc contribution           =    -546.70865560 Ry
     ewald contribution        =   17982.97040965 Ry
     smearing contrib. (-TS)   =      -0.01965497 Ry

     total magnetization       =     0.00 Bohr mag/cell
     absolute magnetization    =     0.00 Bohr mag/cell

     convergence has been achieved in  13 iterations

     Forces acting on atoms (Ry/au):

     negative rho (up, down):  1.350E-02 1.350E-02
     atom    1 type  1   force =     0.00002913   -0.00109974   -0.10416877
     atom    2 type  2   force =     0.00002027    0.00000000    0.03806920
     atom    3 type  1   force =    -0.00006545    0.00000000   -0.02279436
     atom    4 type  2   force =    -0.00614764    0.00312954   -0.00580191
     atom    5 type  1   force =     0.00032287    0.00047507   -0.00067743
     atom    6 type  2   force =    -0.00036668    0.00000000   -0.00048133
     atom    7 type  1   force =    -0.00085286    0.00000000   -0.00377664
     atom    8 type  2   force =    -0.00010651    0.00000904   -0.00083878
     atom    9 type  1   force =     0.00002913    0.00109974   -0.10416877
     atom   10 type  2   force =     0.00011874    0.00000000    0.03425094
     atom   11 type  1   force =    -0.00007832    0.00000000    0.01138905
     atom   12 type  2   force =    -0.00614764   -0.00312954   -0.00580191
     atom   13 type  1   force =     0.00032287   -0.00047507   -0.00067743
     atom   14 type  2   force =    -0.00047457    0.00000000   -0.00116129
     atom   15 type  1   force =     0.00006529    0.00000000    0.00121616
     atom   16 type  2   force =    -0.00010651   -0.00000904   -0.00083878
     atom   17 type  2   force =     0.00011774    0.00000000    0.06644016
     atom   18 type  1   force =     0.00011038    0.00000000    0.13065063
     atom   19 type  2   force =    -0.00014122    0.00000000   -0.08410039
     atom   20 type  2   force =    -0.05780137    0.00012992   -0.03633439
     atom   21 type  2   force =     0.05808199    0.00016374   -0.03623898
     atom   22 type  1   force =    -0.00000648    0.00088249    0.07796451
     atom   23 type  2   force =    -0.00015227    0.00000000    0.00132527
     atom   24 type  2   force =    -0.00024503    0.00000000   -0.03622396
     atom   25 type  2   force =     0.00593751    0.00310948   -0.00552442
     atom   26 type  1   force =    -0.00035856    0.00000000    0.00021940
     atom   27 type  2   force =     0.00036891    0.00000000    0.00146714
     atom   28 type  2   force =    -0.00020230    0.00031925   -0.00035132
     atom   29 type  2   force =    -0.00035563    0.00017453    0.00005319
     atom   30 type  1   force =     0.00033946    0.00044562    0.00047011
     atom   31 type  2   force =    -0.00063092    0.00000000    0.00025737
     atom   32 type  2   force =     0.00053719   -0.00025439    0.00056166
     atom   33 type  2   force =     0.00005117    0.00000000    0.06643979
     atom   34 type  1   force =     0.00012222    0.00000000    0.13042732
     atom   35 type  2   force =    -0.00003735    0.00000000   -0.08361237
     atom   36 type  2   force =    -0.05780137   -0.00012992   -0.03633439
     atom   37 type  2   force =     0.05808199   -0.00016374   -0.03623898
     atom   38 type  1   force =    -0.00000648   -0.00088249    0.07796451
     atom   39 type  2   force =     0.00000810    0.00000000   -0.00028495
     atom   40 type  2   force =     0.00005523    0.00000000   -0.03531496
     atom   41 type  2   force =     0.00593751   -0.00310948   -0.00552442
     atom   42 type  1   force =    -0.00054253    0.00000000    0.00098303
     atom   43 type  2   force =     0.00034293    0.00000000    0.00161473
     atom   44 type  2   force =    -0.00020230   -0.00031925   -0.00035132
     atom   45 type  2   force =    -0.00035563   -0.00017453    0.00005319
     atom   46 type  1   force =     0.00033946   -0.00044562    0.00047011
     atom   47 type  2   force =     0.00146913    0.00000000    0.00068494
     atom   48 type  2   force =     0.00053719    0.00025439    0.00056166
     atom   49 type  2   force =     0.03983773    0.00000000    0.02540513
     atom   50 type  3   force =    -0.03999851    0.00000000   -0.02131694

     Total force =     0.346410     Total SCF correction =     0.001186
 !ASE

     Writing output data file calc.save

     General routines

     Parallel routines

   This run was terminated on:  18: 4:13  10Feb2018

   JOB DONE.