     Program PWSCF v.5.1rc2 (svn rev. ) starts on 10Feb2018 at 23:54: 0

     Current dimensions of program PWSCF are:
     Max number of different atomic species (ntypx) = 10
     Max number of k-points (npk) =  40000
     Max angular momentum in pseudopotentials (lmaxx) =  3

     IMPORTANT: XC functional enforced from input :
     Exchange-correlation      = BEEF ( 1  4 27 13 2)
     Any further DFT definition will be discarded
     Please, verify this is what you really want

     Subspace diagonalization in iterative solution of the eigenvalue problem:
     a serial algorithm will be used

     Generating pointlists ...
     new r_m :   0.4125 (alat units)  0.7795 (a.u.) for type    1
     new r_m :   0.3996 (alat units)  0.7551 (a.u.) for type    2
     new r_m :   0.3996 (alat units)  0.7551 (a.u.) for type    3

     bravais-lattice index     =            0
     lattice parameter (alat)  =       1.8897  a.u.
     unit-cell volume          =    7990.9933 (a.u.)^3
     number of atoms/cell      =           50
     number of atomic types    =            3
     number of electrons       =       391.00
     number of Kohn-Sham states=          295
     kinetic-energy cutoff     =      40.4243  Ry
     charge density cutoff     =     404.2426  Ry
     convergence threshold     =      7.3E-07
     mixing beta               =       0.1000
     number of iterations used =           10  plain     mixing
     Exchange-correlation      = BEEF ( 1  4 27 13 2)
     nstep                     =           50

     celldm(1)=   1.889726  celldm(2)=   0.000000  celldm(3)=   0.000000
     celldm(4)=   0.000000  celldm(5)=   0.000000  celldm(6)=   0.000000

     crystal axes: (cart. coord. in units of alat)
               a(1) = (   6.590708   0.000000   0.000000 )
               a(2) = (   0.000000   5.950229   0.000000 )
               a(3) = (   0.000000   0.000000  30.195235 )

     reciprocal axes: (cart. coord. in units 2 pi/alat)
               b(1) = (  0.151729  0.000000  0.000000 )
               b(2) = (  0.000000  0.168061  0.000000 )
               b(3) = (  0.000000  0.000000  0.033118 )

     PseudoPot. # 1 for Ti read from file:
     /home/alatimer/bin/psp/esp_psp_w_gbrvRu/Ti.UPF
     MD5 check sum: 8e4df49b7f0d34bbd5052bf3f5ea0213
     Pseudo is Ultrasoft, Zval = 12.0
     Generated by new atomic code, or converted to UPF format
     Using radial grid of  851 points,  6 beta functions with:
                l(1) =   0
                l(2) =   0
                l(3) =   1
                l(4) =   1
                l(5) =   2
                l(6) =   2
     Q(r) pseudized with  8 coefficients,  rinner =    1.000   1.000   1.000
                                                       1.000   1.000

     PseudoPot. # 2 for  O read from file:
     /home/alatimer/bin/psp/esp_psp_w_gbrvRu/O.UPF
     MD5 check sum: e057bbcf3229fb5d8c36c0c92f9568b4
     Pseudo is Ultrasoft + core correction, Zval =  6.0
     Generated using "atomic" code by A. Dal Corso  v.5.0.2 svn rev. 9415
     Using radial grid of 1095 points,  4 beta functions with:
                l(1) =   0
                l(2) =   0
                l(3) =   1
                l(4) =   1
     Q(r) pseudized with 0 coefficients

     PseudoPot. # 3 for  H read from file:
     /home/alatimer/bin/psp/esp_psp_w_gbrvRu/H.UPF
     MD5 check sum: bd57da0722753ddfd9833a65b40bb853
     Pseudo is Ultrasoft, Zval =  1.0
     Generated using "atomic" code by A. Dal Corso  v.5.0.2 svn rev. 9415
     Using radial grid of  929 points,  2 beta functions with:
                l(1) =   0
                l(2) =   0
     Q(r) pseudized with 0 coefficients

     vdW kernel table read from file vdW_kernel_table
     MD5 check sum: 095c7af220d748ca6e76c0b4c6cfb241

     atomic species   valence    mass     pseudopotential
        Ti1           12.00    47.88000     Ti( 1.00)
        O1             6.00    15.99940      O( 1.00)
        H1             1.00     1.00794      H( 1.00)

     Starting magnetic structure
     atomic species   magnetization
        Ti1          0.250
        O1           0.500
        H1           0.000

     No symmetry found

   Cartesian axes

     site n.     atom                  positions (alat units)
         1           Ti1 tau(   1) = (   1.6476770   0.7437786   2.6545865  )
         2           O1  tau(   2) = (   1.6476770   2.2313359   3.9361215  )
         3           Ti1 tau(   3) = (   1.6476770   2.2313359   5.9499405  )
         4           O1  tau(   4) = (   0.3661420   0.7437786   5.9499405  )
         5           Ti1 tau(   5) = (   1.6423058   0.7993178   9.2289010  )
         6           O1  tau(   6) = (   1.6406404   2.2313359  10.4535548  )
         7           Ti1 tau(   7) = (   1.6373334   2.2313359  13.0586656  )
         8           O1  tau(   8) = (   0.3716334   0.7231912  12.7369480  )
         9           Ti1 tau(   9) = (   1.6476770   3.7188931   2.6545865  )
        10           O1  tau(  10) = (   1.6476770   5.2064503   3.9361215  )
        11           Ti1 tau(  11) = (   1.6476770   5.2064503   5.9499405  )
        12           O1  tau(  12) = (   0.3661420   3.7188931   5.9499405  )
        13           Ti1 tau(  13) = (   1.6423059   3.6633529   9.2289023  )
        14           O1  tau(  14) = (   1.6396028   5.2064504  10.5374954  )
        15           Ti1 tau(  15) = (   1.6366369   5.2064504  12.3426698  )
        16           O1  tau(  16) = (   0.3716333   3.7394800  12.7369475  )
        17           O1  tau(  17) = (   1.6476770   2.2313359   1.3730516  )
        18           Ti1 tau(  18) = (   4.9430310   2.2313359   2.6545865  )
        19           O1  tau(  19) = (   4.9430310   2.2313359   4.6684056  )
        20           O1  tau(  20) = (   6.2245660   0.7437786   2.6545865  )
        21           O1  tau(  21) = (   3.6614961   0.7437786   2.6545865  )
        22           Ti1 tau(  22) = (   4.9430310   0.7437786   5.9499405  )
        23           O1  tau(  23) = (   1.6444126   2.2313359   7.9291264  )
        24           O1  tau(  24) = (   4.9430310   2.2313359   7.2314755  )
        25           O1  tau(  25) = (   2.9292120   0.7437786   5.9499405  )
        26           Ti1 tau(  26) = (   4.9374203   2.2313360   9.4425711  )
        27           O1  tau(  27) = (   4.9384755   2.2313359  11.2756104  )
        28           O1  tau(  28) = (   6.2333856   0.7395591   9.2701299  )
        29           O1  tau(  29) = (   3.6424277   0.7403199   9.2676498  )
        30           Ti1 tau(  30) = (   4.9388558   0.7382018  12.7898683  )
        31           O1  tau(  31) = (   4.8884434   2.2313358  13.8602379  )
        32           O1  tau(  32) = (   2.8718067   0.7224686  12.6922084  )
        33           O1  tau(  33) = (   1.6476770   5.2064503   1.3730516  )
        34           Ti1 tau(  34) = (   4.9430310   5.2064503   2.6545865  )
        35           O1  tau(  35) = (   4.9430310   5.2064503   4.6684056  )
        36           O1  tau(  36) = (   6.2245660   3.7188931   2.6545865  )
        37           O1  tau(  37) = (   3.6614961   3.7188931   2.6545865  )
        38           Ti1 tau(  38) = (   4.9430310   3.7188931   5.9499405  )
        39           O1  tau(  39) = (   1.6444418   5.2064506   7.9393866  )
        40           O1  tau(  40) = (   4.9430310   5.2064503   7.2314755  )
        41           O1  tau(  41) = (   2.9292120   3.7188931   5.9499405  )
        42           Ti1 tau(  42) = (   4.9387790   5.2064503   9.4241858  )
        43           O1  tau(  43) = (   4.9379278   5.2064504  11.2756977  )
        44           O1  tau(  44) = (   6.2333855   3.7231127   9.2701299  )
        45           O1  tau(  45) = (   3.6424278   3.7223520   9.2676499  )
        46           Ti1 tau(  46) = (   4.9388558   3.7244696  12.7898683  )
        47           O1  tau(  47) = (   4.8902929   5.2064502  13.8618696  )
        48           O1  tau(  48) = (   2.8718066   3.7402036  12.6922086  )
        49           O1  tau(  49) = (   1.7618258   2.2313358  14.8494317  )
        50           H1  tau(  50) = (   2.6007197   2.2013366  15.3328018  )

     number of k points=    40  Fermi-Dirac smearing, width (Ry)=  0.0073
                       cart. coord. in units 2pi/alat
        k(    1) = (   0.0000000   0.0000000   0.0000000), wk =   0.0277778
        k(    2) = (   0.0000000   0.0280101   0.0000000), wk =   0.0555556
        k(    3) = (   0.0000000   0.0560203   0.0000000), wk =   0.0555556
        k(    4) = (   0.0000000  -0.0840304   0.0000000), wk =   0.0277778
        k(    5) = (   0.0252881   0.0000000   0.0000000), wk =   0.0555556
        k(    6) = (   0.0252881   0.0280101   0.0000000), wk =   0.0555556
        k(    7) = (   0.0252881   0.0560203   0.0000000), wk =   0.0555556
        k(    8) = (   0.0252881  -0.0840304   0.0000000), wk =   0.0555556
        k(    9) = (   0.0505763   0.0000000   0.0000000), wk =   0.0555556
        k(   10) = (   0.0505763   0.0280101   0.0000000), wk =   0.0555556
        k(   11) = (   0.0505763   0.0560203   0.0000000), wk =   0.0555556
        k(   12) = (   0.0505763  -0.0840304   0.0000000), wk =   0.0555556
        k(   13) = (  -0.0758644   0.0000000   0.0000000), wk =   0.0277778
        k(   14) = (  -0.0758644   0.0280101   0.0000000), wk =   0.0555556
        k(   15) = (  -0.0758644   0.0560203   0.0000000), wk =   0.0555556
        k(   16) = (  -0.0758644  -0.0840304   0.0000000), wk =   0.0277778
        k(   17) = (  -0.0252881   0.0280101   0.0000000), wk =   0.0555556
        k(   18) = (  -0.0252881   0.0560203   0.0000000), wk =   0.0555556
        k(   19) = (  -0.0505763   0.0280101   0.0000000), wk =   0.0555556
        k(   20) = (  -0.0505763   0.0560203   0.0000000), wk =   0.0555556
        k(   21) = (   0.0000000   0.0000000   0.0000000), wk =   0.0277778
        k(   22) = (   0.0000000   0.0280101   0.0000000), wk =   0.0555556
        k(   23) = (   0.0000000   0.0560203   0.0000000), wk =   0.0555556
        k(   24) = (   0.0000000  -0.0840304   0.0000000), wk =   0.0277778
        k(   25) = (   0.0252881   0.0000000   0.0000000), wk =   0.0555556
        k(   26) = (   0.0252881   0.0280101   0.0000000), wk =   0.0555556
        k(   27) = (   0.0252881   0.0560203   0.0000000), wk =   0.0555556
        k(   28) = (   0.0252881  -0.0840304   0.0000000), wk =   0.0555556
        k(   29) = (   0.0505763   0.0000000   0.0000000), wk =   0.0555556
        k(   30) = (   0.0505763   0.0280101   0.0000000), wk =   0.0555556
        k(   31) = (   0.0505763   0.0560203   0.0000000), wk =   0.0555556
        k(   32) = (   0.0505763  -0.0840304   0.0000000), wk =   0.0555556
        k(   33) = (  -0.0758644   0.0000000   0.0000000), wk =   0.0277778
        k(   34) = (  -0.0758644   0.0280101   0.0000000), wk =   0.0555556
        k(   35) = (  -0.0758644   0.0560203   0.0000000), wk =   0.0555556
        k(   36) = (  -0.0758644  -0.0840304   0.0000000), wk =   0.0277778
        k(   37) = (  -0.0252881   0.0280101   0.0000000), wk =   0.0555556
        k(   38) = (  -0.0252881   0.0560203   0.0000000), wk =   0.0555556
[...]
     atom:   33    charge:    1.9197    magn:    0.0010    constr:    0.0000
     atom:   34    charge:    3.1239    magn:    0.0000    constr:    0.0000
     atom:   35    charge:    1.9419    magn:    0.0000    constr:    0.0000
     atom:   36    charge:    1.9484    magn:    0.0000    constr:    0.0000
     atom:   37    charge:    1.9484    magn:    0.0000    constr:    0.0000
     atom:   38    charge:    3.1199    magn:    0.0000    constr:    0.0000
     atom:   39    charge:    1.9474    magn:   -0.0001    constr:    0.0000
     atom:   40    charge:    1.9368    magn:   -0.0002    constr:    0.0000
     atom:   41    charge:    1.9515    magn:   -0.0000    constr:    0.0000
     atom:   42    charge:    3.1217    magn:    0.0001    constr:    0.0000
     atom:   43    charge:    1.9394    magn:   -0.0002    constr:    0.0000
     atom:   44    charge:    1.9494    magn:   -0.0002    constr:    0.0000
     atom:   45    charge:    1.9471    magn:   -0.0002    constr:    0.0000
     atom:   46    charge:    3.1193    magn:    0.0000    constr:    0.0000
     atom:   47    charge:    1.9474    magn:   -0.0001    constr:    0.0000
     atom:   48    charge:    1.9462    magn:   -0.0001    constr:    0.0000
     atom:   49    charge:    1.9581    magn:    0.0000    constr:    0.0000
     atom:   50    charge:    0.3935    magn:   -0.0000    constr:    0.0000

     total energy              =   -3005.52979047 Ry
     Harris-Foulkes estimate   =   -3005.52985458 Ry
     estimated scf accuracy    <       0.00087082 Ry

     total magnetization       =     0.00 Bohr mag/cell
     absolute magnetization    =     0.01 Bohr mag/cell

     iteration #  2     ecut=    40.42 Ry     beta=0.10
     Davidson diagonalization with overlap
     ethr =  2.23E-07,  avg # of iterations =  1.0

[...]

     total energy              =   -3005.52981334 Ry
     Harris-Foulkes estimate   =   -3005.52981356 Ry
     estimated scf accuracy    <       0.00000228 Ry

[...]

     iteration #  8     ecut=    40.42 Ry     beta=0.10
     Davidson diagonalization with overlap
     ethr =  5.84E-10,  avg # of iterations =  2.0

     negative rho (up, down):  1.350E-02 1.350E-02

     Magnetic moment per site:
     atom:    1    charge:    3.1244    magn:   -0.0001    constr:    0.0000
     atom:    2    charge:    1.9465    magn:    0.0001    constr:    0.0000
     atom:    3    charge:    3.1200    magn:   -0.0000    constr:    0.0000
     atom:    4    charge:    1.9515    magn:    0.0000    constr:    0.0000
     atom:    5    charge:    3.1144    magn:    0.0000    constr:    0.0000
     atom:    6    charge:    1.9404    magn:   -0.0000    constr:    0.0000
     atom:    7    charge:    3.1162    magn:    0.0000    constr:    0.0000
     atom:    8    charge:    1.9463    magn:   -0.0000    constr:    0.0000
     atom:    9    charge:    3.1244    magn:   -0.0001    constr:    0.0000
     atom:   10    charge:    1.9466    magn:    0.0001    constr:    0.0000
     atom:   11    charge:    3.1198    magn:   -0.0000    constr:    0.0000
     atom:   12    charge:    1.9515    magn:    0.0000    constr:    0.0000
     atom:   13    charge:    3.1144    magn:    0.0000    constr:    0.0000
     atom:   14    charge:    1.9542    magn:   -0.0000    constr:    0.0000
     atom:   15    charge:    3.1165    magn:    0.0000    constr:    0.0000
     atom:   16    charge:    1.9463    magn:   -0.0000    constr:    0.0000
     atom:   17    charge:    1.9196    magn:    0.0004    constr:    0.0000
     atom:   18    charge:    3.1239    magn:   -0.0000    constr:    0.0000
     atom:   19    charge:    1.9419    magn:    0.0000    constr:    0.0000
     atom:   20    charge:    1.9484    magn:    0.0000    constr:    0.0000
     atom:   21    charge:    1.9484    magn:    0.0000    constr:    0.0000
     atom:   22    charge:    3.1199    magn:    0.0000    constr:    0.0000
     atom:   23    charge:    1.9555    magn:   -0.0000    constr:    0.0000
     atom:   24    charge:    1.9364    magn:   -0.0000    constr:    0.0000
     atom:   25    charge:    1.9515    magn:    0.0000    constr:    0.0000
     atom:   26    charge:    3.1143    magn:    0.0000    constr:    0.0000
     atom:   27    charge:    1.9395    magn:   -0.0001    constr:    0.0000
     atom:   28    charge:    1.9494    magn:   -0.0001    constr:    0.0000
     atom:   29    charge:    1.9471    magn:   -0.0001    constr:    0.0000
     atom:   30    charge:    3.1193    magn:    0.0000    constr:    0.0000
     atom:   31    charge:    1.9474    magn:   -0.0000    constr:    0.0000
     atom:   32    charge:    1.9464    magn:   -0.0000    constr:    0.0000
     atom:   33    charge:    1.9196    magn:    0.0005    constr:    0.0000
     atom:   34    charge:    3.1239    magn:   -0.0000    constr:    0.0000
     atom:   35    charge:    1.9419    magn:    0.0000    constr:    0.0000
     atom:   36    charge:    1.9484    magn:    0.0000    constr:    0.0000
     atom:   37    charge:    1.9484    magn:    0.0000    constr:    0.0000
     atom:   38    charge:    3.1199    magn:    0.0000    constr:    0.0000
     atom:   39    charge:    1.9474    magn:   -0.0000    constr:    0.0000
     atom:   40    charge:    1.9368    magn:   -0.0000    constr:    0.0000
     atom:   41    charge:    1.9515    magn:    0.0000    constr:    0.0000
     atom:   42    charge:    3.1217    magn:    0.0000    constr:    0.0000
     atom:   43    charge:    1.9394    magn:   -0.0001    constr:    0.0000
     atom:   44    charge:    1.9494    magn:   -0.0001    constr:    0.0000
     atom:   45    charge:    1.9472    magn:   -0.0001    constr:    0.0000
     atom:   46    charge:    3.1193    magn:    0.0000    constr:    0.0000
     atom:   47    charge:    1.9475    magn:   -0.0000    constr:    0.0000
     atom:   48    charge:    1.9463    magn:   -0.0000    constr:    0.0000
     atom:   49    charge:    1.9580    magn:   -0.0000    constr:    0.0000
     atom:   50    charge:    0.3941    magn:   -0.0000    constr:    0.0000

     End of self-consistent calculation

 ------ SPIN UP ------------

          k = 0.0000 0.0000 0.0000 ( 34665 PWs)   bands (ev):

   -58.5100 -58.4749 -57.5987 -57.5691 -57.5630 -57.4865 -57.4734 -57.4337
   -57.3361 -57.3052 -57.2677 -57.2321 -57.1225 -57.0872 -57.0181 -56.9802
   -34.9548 -34.7789 -34.7501 -34.7162 -34.6213 -34.5644 -34.0979 -34.0537
   -34.0157 -33.8726 -33.8517 -33.7934 -33.7721 -33.7661 -33.7567 -33.7478
   -33.7426 -33.7253 -33.7047 -33.6985 -33.6961 -33.6754 -33.6649 -33.6604
   -33.6539 -33.6447 -33.6385 -33.5964 -33.5546 -33.5515 -33.5412 -33.5051
   -33.5004 -33.4933 -33.4634 -33.4496 -33.4378 -33.4369 -33.4170 -33.3887
   -33.3409 -33.2954 -33.2511 -33.2511 -33.2314 -33.2070 -33.1494 -33.0991
   -18.6736 -18.2588 -18.2214 -18.0134 -17.9155 -17.7471 -17.7335 -17.6312
   -17.5954 -17.5721 -17.4610 -17.2646 -17.2226 -17.2160 -17.1520 -17.0537
   -17.0329 -17.0114 -16.9433 -16.9019 -16.8533 -16.8182 -16.8117 -16.7877
   -16.6942 -16.6320 -16.6179 -16.5149 -16.5006 -16.3509 -16.2876 -15.8026
   -15.7423  -6.2517  -5.9800  -5.6968  -5.5005  -5.4189  -5.3169  -5.1911
    -5.1687  -5.0820  -4.9507  -4.8592  -4.8037  -4.7908  -4.7190  -4.6444
    -4.6161  -4.5476  -4.5342  -4.4210  -4.4182  -4.3625  -4.3467  -4.2522
    -4.2283  -4.1738  -4.1112  -4.0988  -4.0920  -4.0798  -3.9978  -3.9818
    -3.9136  -3.8422  -3.8363  -3.7463  -3.7382  -3.7317  -3.6234  -3.6190
    -3.5872  -3.4744  -3.4521  -3.4128  -3.3012  -3.1325  -3.0938  -3.0405
    -2.9768  -2.9617  -2.8993  -2.8857  -2.8813  -2.7715  -2.7554  -2.7395
    -2.6486  -2.5953  -2.5114  -2.4358  -2.4323  -2.3985  -2.3395  -2.2890
    -2.2362  -2.1785  -2.1740  -2.1253  -2.0830  -2.0779  -1.9312  -1.8484
    -1.8319  -1.8274  -1.8176  -1.7147  -1.6259  -1.5696  -1.5586  -1.5232
    -1.5212  -1.5050  -1.4537  -1.3700  -1.3492  -1.3287  -1.3127  -1.2894
    -1.2795  -1.1616  -1.0713  -0.9916  -0.9559  -0.8854  -0.8745  -0.8219
    -0.7551  -0.7193  -0.6692  -0.3756   0.8216   0.9189   1.2119   1.4947
     1.6022   1.6883   1.7177   1.8103   1.8423   1.9191   1.9528   2.0200
     2.0255   2.1710   2.1855   2.2573   2.2828   2.3117   2.3920   2.4157
     2.4638   2.4709   2.5076   2.5208   2.6027   2.6261   2.6712   2.7173
     2.7439   2.7502   2.7977   2.8286   2.8557   2.8745   2.8824   2.9941
     3.0084   3.0336   3.2081   3.2106   3.2376   3.2484   3.3474   3.4064
     3.4408   3.4993   3.5937   3.7443   3.8770   3.8911   4.0779   4.2698
     4.4017   4.4798   4.5029   4.6460   4.7917   4.9237   4.9614   5.0581
     5.1866   5.2001   5.2304   5.2457   5.3364   5.3387   5.3514   5.4573
     5.4779   5.5257   5.6904   5.7096   5.7879   5.8779   5.9037   5.9089
     5.9987   6.0384   6.2245   6.2883   6.3424   6.4100   6.5823   6.6087
     7.1057   7.7897   7.9897   8.0200   8.2197   8.2389   8.5744   8.7198
     8.7983   9.0636   9.1867   9.2279   9.3565   9.4738   9.6164

[...]

          k =-0.0759 0.0000 0.0000 ( 34758 PWs)   bands (ev):

[...]

 ------ SPIN DOWN ----------

[...]

          k = 0.0506-0.0840 0.0000 ( 34628 PWs)   bands (ev):

[...]

          k =-0.0506 0.0560 0.0000 ( 34596 PWs)   bands (ev):

   -58.5013 -58.4837 -57.5896 -57.5719 -57.5664 -57.4894 -57.4659 -57.4410
   -57.3312 -57.3100 -57.2594 -57.2402 -57.1142 -57.0966 -57.0086 -56.9896
   -34.8605 -34.7717 -34.7572 -34.6909 -34.6649 -34.6447 -34.0026 -33.9674
   -33.9328 -33.8286 -33.8276 -33.8041 -33.7827 -33.7817 -33.7807 -33.7703
   -33.7485 -33.7379 -33.7142 -33.7089 -33.7032 -33.6826 -33.6714 -33.6701
   -33.6569 -33.6209 -33.6201 -33.6111 -33.5799 -33.5189 -33.5002 -33.4890
   -33.4883 -33.4802 -33.4696 -33.4594 -33.4571 -33.4473 -33.4440 -33.4315
   -33.3192 -33.2887 -33.2744 -33.2511 -33.2503 -33.2353 -33.2242 -33.1979
   -18.3109 -18.2216 -18.0212 -17.9166 -17.8211 -17.8007 -17.7635 -17.5886
   -17.5744 -17.4357 -17.4210 -17.3102 -17.2863 -17.1730 -17.1271 -17.0726
   -17.0423 -17.0291 -17.0186 -16.9606 -16.9467 -16.9206 -16.8170 -16.7890
   -16.7329 -16.7188 -16.6462 -16.6296 -16.6233 -16.4336 -16.4037 -15.8412
   -15.8196  -5.9712  -5.5041  -5.2066  -5.1453  -5.1373  -4.9856  -4.9798
    -4.9149  -4.8434  -4.7359  -4.7145  -4.7041  -4.6211  -4.5981  -4.5898
    -4.5580  -4.5340  -4.5212  -4.4465  -4.4031  -4.3784  -4.3565  -4.3308
    -4.3036  -4.2487  -4.2294  -4.1968  -4.1450  -4.1215  -4.0288  -4.0005
    -3.8978  -3.8195  -3.7917  -3.7271  -3.6623  -3.6230  -3.5231  -3.4708
    -3.4402  -3.3824  -3.3377  -3.2966  -3.2867  -3.2105  -3.1796  -3.1686
    -3.1499  -3.0321  -2.9712  -2.9558  -2.9265  -2.8434  -2.8080  -2.7759
    -2.7371  -2.6841  -2.6211  -2.6111  -2.5840  -2.5657  -2.5077  -2.4501
    -2.3850  -2.3641  -2.3408  -2.3332  -2.2676  -2.2254  -2.2024  -2.1725
    -2.1347  -2.0505  -1.9993  -1.9275  -1.8671  -1.7819  -1.7549  -1.7459
    -1.7262  -1.6550  -1.6390  -1.5690  -1.5059  -1.4228  -1.3799  -1.3100
    -1.2309  -1.2107  -1.1290  -1.0837  -1.0457  -0.9538  -0.9353  -0.9018
    -0.8750  -0.8556  -0.7460  -0.6706   1.1051   1.2939   1.4450   1.4652
     1.6501   1.8007   1.8263   1.8648   2.0095   2.0416   2.1430   2.1591
     2.2057   2.2415   2.3368   2.3659   2.4199   2.4625   2.5117   2.5259
     2.5486   2.6060   2.6258   2.6696   2.6757   2.7169   2.7669   2.8051
     2.8311   2.8595   2.8909   2.9736   2.9841   2.9991   3.0323   3.0468
     3.0823   3.1222   3.1599   3.1654   3.2650   3.2840   3.3040   3.3644
     3.4424   3.5002   3.5375   3.6047   3.6359   3.7230   3.9506   4.2541
     4.4003   4.4142   4.5138   4.5795   4.6624   4.7002   4.7905   4.9187
     5.0173   5.1214   5.1511   5.2010   5.3859   5.4247   5.4582   5.4960
     5.6496   5.6870   5.7641   5.7894   5.8642   5.8869   5.9369   5.9784
     6.0945   6.1361   6.2118   6.2483   6.3440   6.4408   6.5963   6.6251
     7.0615   7.3017   7.4441   7.6040   7.8861   7.9475   8.0276   8.3823
     8.5891   8.6767   8.7934   8.9093   9.2079   9.2367   9.3850

     the Fermi energy is    -0.4916 ev

!    total energy              =   -3005.52981345 Ry
     Harris-Foulkes estimate   =   -3005.52981354 Ry
     estimated scf accuracy    <       0.00000041 Ry

     The total energy is the sum of the following terms:

     one-electron contribution =  -41015.26815927 Ry
     hartree contribution      =   20573.36472800 Ry
     xc contribution           =    -546.73002837 Ry
     ewald contribution        =   17983.12329789 Ry
     smearing contrib. (-TS)   =      -0.01965170 Ry

     total magnetization       =     0.00 Bohr mag/cell
     absolute magnetization    =     0.01 Bohr mag/cell

     convergence has been achieved in   8 iterations

     Forces acting on atoms (Ry/au):

     negative rho (up, down):  1.350E-02 1.350E-02
     atom    1 type  1   force =     0.00001762   -0.00110141   -0.10417016
     atom    2 type  2   force =     0.00003770   -0.00000131    0.03813558
     atom    3 type  1   force =    -0.00011563   -0.00000181   -0.02283004
     atom    4 type  2   force =    -0.00614174    0.00312254   -0.00580903
     atom    5 type  1   force =     0.00030731    0.00036551   -0.00086022
     atom    6 type  2   force =    -0.00037507   -0.00000841   -0.00005769
     atom    7 type  1   force =     0.00102392    0.00018839   -0.00076594
     atom    8 type  2   force =    -0.00003201    0.00001697   -0.00035758
     atom    9 type  1   force =     0.00001861    0.00109775   -0.10416859
     atom   10 type  2   force =     0.00002822   -0.00000162    0.03428721
     atom   11 type  1   force =    -0.00011465   -0.00000196    0.01130886
     atom   12 type  2   force =    -0.00614076   -0.00312351   -0.00581167
     atom   13 type  1   force =     0.00028884   -0.00037605   -0.00085116
     atom   14 type  2   force =    -0.00073063    0.00001734   -0.00105179
     atom   15 type  1   force =     0.00046142   -0.00018137    0.00122176
     atom   16 type  2   force =     0.00033812   -0.00044865   -0.00002161
     atom   17 type  2   force =     0.00004164   -0.00000149    0.06638590
     atom   18 type  1   force =     0.00013965   -0.00000151    0.13065296
     atom   19 type  2   force =    -0.00015744   -0.00000217   -0.08412612
     atom   20 type  2   force =    -0.05788922    0.00015345   -0.03630561
     atom   21 type  2   force =     0.05803551    0.00016869   -0.03621407
     atom   22 type  1   force =    -0.00003854    0.00086916    0.07796944
     atom   23 type  2   force =    -0.00016089    0.00000569    0.00137816
     atom   24 type  2   force =    -0.00017496   -0.00000065   -0.03628265
     atom   25 type  2   force =     0.00592343    0.00307863   -0.00549645
     atom   26 type  1   force =    -0.00035803   -0.00002119    0.00025957
     atom   27 type  2   force =     0.00034329   -0.00001140    0.00148506
     atom   28 type  2   force =    -0.00018637    0.00033969   -0.00038170
     atom   29 type  2   force =    -0.00033541    0.00015424    0.00006685
     atom   30 type  1   force =     0.00021788    0.00065527    0.00055963
     atom   31 type  2   force =    -0.00029983   -0.00009102   -0.00022917
     atom   32 type  2   force =     0.00019366   -0.00012105    0.00009277
     atom   33 type  2   force =    -0.00000935   -0.00000011    0.06641005
     atom   34 type  1   force =     0.00011393   -0.00000077    0.13046141
     atom   35 type  2   force =    -0.00012951    0.00000030   -0.08357859
     atom   36 type  2   force =    -0.05788996   -0.00015666   -0.03630649
     atom   37 type  2   force =     0.05803704   -0.00017085   -0.03621457
     atom   38 type  1   force =    -0.00003711   -0.00087308    0.07796815
     atom   39 type  2   force =    -0.00007707   -0.00000881   -0.00022280
     atom   40 type  2   force =     0.00007749   -0.00000226   -0.03528999
     atom   41 type  2   force =     0.00592495   -0.00308077   -0.00549563
     atom   42 type  1   force =    -0.00054960    0.00002004    0.00092852
     atom   43 type  2   force =     0.00040353    0.00001357    0.00163247
     atom   44 type  2   force =    -0.00017355   -0.00033790   -0.00039147
     atom   45 type  2   force =    -0.00034652   -0.00015492    0.00005593
     atom   46 type  1   force =    -0.00030844   -0.00067406    0.00084535
     atom   47 type  2   force =     0.00162052    0.00003784    0.00055125
     atom   48 type  2   force =     0.00048769    0.00065853   -0.00029076
     atom   49 type  2   force =     0.00098427   -0.00026139    0.00174894
     atom   50 type  3   force =    -0.00229394    0.00025460   -0.00082428

     Total force =     0.340175     Total SCF correction =     0.002636
 !ASE

     Writing output data file calc.save

     General routines

     Parallel routines

   This run was terminated on:   0:41:14  11Feb2018

   JOB DONE.