     Program PWSCF v.5.1rc2 (svn rev. ) starts on 26Feb2018 at 12: 8:35

     Current dimensions of program PWSCF are:
     Max number of different atomic species (ntypx) = 10
     Max number of k-points (npk) =  40000
     Max angular momentum in pseudopotentials (lmaxx) =  3

     IMPORTANT: XC functional enforced from input :
     Exchange-correlation      = BEEF ( 1  4 27 13 2)
     Any further DFT definition will be discarded
     Please, verify this is what you really want

     Subspace diagonalization in iterative solution of the eigenvalue problem:
     a serial algorithm will be used

     Generating pointlists ...
     new r_m :   0.4125 (alat units)  0.7795 (a.u.) for type    1
     new r_m :   0.4125 (alat units)  0.7795 (a.u.) for type    2
     new r_m :   0.4125 (alat units)  0.7795 (a.u.) for type    3
     new r_m :   0.4125 (alat units)  0.7795 (a.u.) for type    4

     bravais-lattice index     =            0
     lattice parameter (alat)  =       1.8897  a.u.
     unit-cell volume          =    7990.9933 (a.u.)^3
     number of atoms/cell      =           54
     number of atomic types    =            4
     number of electrons       =       398.00
     number of Kohn-Sham states=          299
     kinetic-energy cutoff     =      40.4243  Ry
     charge density cutoff     =     404.2426  Ry
     convergence threshold     =      7.3E-07
     mixing beta               =       0.1000
     number of iterations used =           10  plain     mixing
     Exchange-correlation      = BEEF ( 1  4 27 13 2)
     nstep                     =           50

     celldm(1)=   1.889726  celldm(2)=   0.000000  celldm(3)=   0.000000
     celldm(4)=   0.000000  celldm(5)=   0.000000  celldm(6)=   0.000000

     crystal axes: (cart. coord. in units of alat)
               a(1) = (   6.590708   0.000000   0.000000 )
               a(2) = (   0.000000   5.950229   0.000000 )
               a(3) = (   0.000000   0.000000  30.195235 )

     reciprocal axes: (cart. coord. in units 2 pi/alat)
               b(1) = (  0.151729  0.000000  0.000000 )
               b(2) = (  0.000000  0.168061  0.000000 )
               b(3) = (  0.000000  0.000000  0.033118 )

     PseudoPot. # 1 for Ti read from file:
     /home/alatimer/bin/psp/esp_psp_w_gbrvRu/Ti.UPF
     MD5 check sum: 8e4df49b7f0d34bbd5052bf3f5ea0213
     Pseudo is Ultrasoft, Zval = 12.0
     Generated by new atomic code, or converted to UPF format
     Using radial grid of  851 points,  6 beta functions with:
                l(1) =   0
                l(2) =   0
                l(3) =   1
                l(4) =   1
                l(5) =   2
                l(6) =   2
     Q(r) pseudized with  8 coefficients,  rinner =    1.000   1.000   1.000
                                                       1.000   1.000

     PseudoPot. # 2 for  O read from file:
     /home/alatimer/bin/psp/esp_psp_w_gbrvRu/O.UPF
     MD5 check sum: e057bbcf3229fb5d8c36c0c92f9568b4
     Pseudo is Ultrasoft + core correction, Zval =  6.0
     Generated using "atomic" code by A. Dal Corso  v.5.0.2 svn rev. 9415
     Using radial grid of 1095 points,  4 beta functions with:
                l(1) =   0
                l(2) =   0
                l(3) =   1
                l(4) =   1
     Q(r) pseudized with 0 coefficients

     PseudoPot. # 3 for  C read from file:
     /home/alatimer/bin/psp/esp_psp_w_gbrvRu/C.UPF
     MD5 check sum: ab446d787031eba755f1d5ee46644bb0
     Pseudo is Ultrasoft + core correction, Zval =  4.0
     Generated using "atomic" code by A. Dal Corso  v.5.0.2 svn rev. 9415
     Using radial grid of 1073 points,  4 beta functions with:
                l(1) =   0
                l(2) =   0
                l(3) =   1
                l(4) =   1
     Q(r) pseudized with 0 coefficients

     PseudoPot. # 4 for  H read from file:
     /home/alatimer/bin/psp/esp_psp_w_gbrvRu/H.UPF
     MD5 check sum: bd57da0722753ddfd9833a65b40bb853
     Pseudo is Ultrasoft, Zval =  1.0
     Generated using "atomic" code by A. Dal Corso  v.5.0.2 svn rev. 9415
     Using radial grid of  929 points,  2 beta functions with:
                l(1) =   0
                l(2) =   0
     Q(r) pseudized with 0 coefficients

     vdW kernel table read from file vdW_kernel_table
     MD5 check sum: 095c7af220d748ca6e76c0b4c6cfb241

     atomic species   valence    mass     pseudopotential
        Ti1           12.00    47.88000     Ti( 1.00)
        O1             6.00    15.99940      O( 1.00)
        C1             4.00    12.01100      C( 1.00)
        H1             1.00     1.00794      H( 1.00)

     Starting magnetic structure
     atomic species   magnetization
        Ti1          0.250
        O1           0.500
        C1           0.750
        H1           0.000

     No symmetry found

   Cartesian axes

     site n.     atom                  positions (alat units)
         1           Ti1 tau(   1) = (   1.6476770   0.7437786   2.6545865  )
         2           O1  tau(   2) = (   1.6476770   2.2313359   3.9361215  )
         3           Ti1 tau(   3) = (   1.6476770   2.2313359   5.9499405  )
         4           O1  tau(   4) = (   0.3661420   0.7437786   5.9499405  )
         5           Ti1 tau(   5) = (   1.6407309   0.9134410   9.3139491  )
         6           O1  tau(   6) = (   1.6648823   2.2608486  10.4895904  )
         7           Ti1 tau(   7) = (   1.7578240   2.2899216  13.0472362  )
         8           O1  tau(   8) = (   0.4801583   0.7600008  12.7739736  )
         9           Ti1 tau(   9) = (   1.6476770   3.7188931   2.6545865  )
        10           O1  tau(  10) = (   1.6476770   5.2064503   3.9361215  )
        11           Ti1 tau(  11) = (   1.6476770   5.2064503   5.9499405  )
        12           O1  tau(  12) = (   0.3661420   3.7188931   5.9499405  )
        13           Ti1 tau(  13) = (   1.6336050   3.7786827   9.1566831  )
        14           O1  tau(  14) = (   1.6678212   5.2513959  10.5409436  )
        15           Ti1 tau(  15) = (   1.7144009   5.2558216  12.3462911  )
        16           O1  tau(  16) = (   0.4635505   3.7986228  12.7318280  )
        17           O1  tau(  17) = (   1.6476770   2.2313359   1.3730516  )
        18           Ti1 tau(  18) = (   4.9430310   2.2313359   2.6545865  )
        19           O1  tau(  19) = (   4.9430310   2.2313359   4.6684056  )
        20           O1  tau(  20) = (   6.2245660   0.7437786   2.6545865  )
        21           O1  tau(  21) = (   3.6614961   0.7437786   2.6545865  )
        22           Ti1 tau(  22) = (   4.9430310   0.7437786   5.9499405  )
        23           O1  tau(  23) = (   1.6683653   2.2752577   7.9427336  )
        24           O1  tau(  24) = (   4.9430310   2.2313359   7.2314755  )
        25           O1  tau(  25) = (   2.9292120   0.7437786   5.9499405  )
        26           Ti1 tau(  26) = (   4.9404121   2.2664794   9.4552217  )
        27           O1  tau(  27) = (   5.0099888   2.2616732  11.2946145  )
        28           O1  tau(  28) = (   6.2612001   0.7714827   9.2659748  )
        29           O1  tau(  29) = (   3.6791272   0.7744986   9.2965846  )
        30           Ti1 tau(  30) = (   5.0117873   0.7976728  12.8161605  )
        31           O1  tau(  31) = (   4.9963122   2.2836652  13.8750618  )
        32           O1  tau(  32) = (   2.9819382   0.7448324  12.7109220  )
        33           O1  tau(  33) = (   1.6476770   5.2064503   1.3730516  )
        34           Ti1 tau(  34) = (   4.9430310   5.2064503   2.6545865  )
        35           O1  tau(  35) = (   4.9430310   5.2064503   4.6684056  )
        36           O1  tau(  36) = (   6.2245660   3.7188931   2.6545865  )
        37           O1  tau(  37) = (   3.6614961   3.7188931   2.6545865  )
        38           Ti1 tau(  38) = (   4.9430310   3.7188931   5.9499405  )
        39           O1  tau(  39) = (   1.6664207   5.2035600   7.9365221  )
        40           O1  tau(  40) = (   4.9430310   5.2064503   7.2314755  )
        41           O1  tau(  41) = (   2.9292120   3.7188931   5.9499405  )
        42           Ti1 tau(  42) = (   4.9524353   5.2460635   9.4426343  )
        43           O1  tau(  43) = (   5.0107556   5.2394944  11.2927493  )
        44           O1  tau(  44) = (   6.2663940   3.7551737   9.2646230  )
        45           O1  tau(  45) = (   3.6780957   3.7542261   9.2971476  )
        46           Ti1 tau(  46) = (   5.0587989   3.7766986  12.8010349  )
        47           O1  tau(  47) = (   5.0196089   5.2502198  13.8813978  )
        48           O1  tau(  48) = (   2.9624133   3.7943242  12.7299881  )
        49           O1  tau(  49) = (   1.7427453   2.2533568  14.8370015  )
        50           C1  tau(  50) = (   2.7196098   4.2826273  16.2318421  )
        51           H1  tau(  51) = (   3.3037454   4.9255546  15.5827400  )
        52           H1  tau(  52) = (   3.2986606   3.7870117  16.9822022  )
        53           H1  tau(  53) = (   2.3125587   3.4026405  15.5729816  )
        54           H1  tau(  54) = (   1.8391288   4.7650601  16.6448379  )

     number of k points=    40  Fermi-Dirac smearing, width (Ry)=  0.0073
                       cart. coord. in units 2pi/alat
        k(    1) = (   0.0000000   0.0000000   0.0000000), wk =   0.0277778
        k(    2) = (   0.0000000   0.0280101   0.0000000), wk =   0.0555556
        k(    3) = (   0.0000000   0.0560203   0.0000000), wk =   0.0555556
        k(    4) = (   0.0000000  -0.0840304   0.0000000), wk =   0.0277778
        k(    5) = (   0.0252881   0.0000000   0.0000000), wk =   0.0555556
        k(    6) = (   0.0252881   0.0280101   0.0000000), wk =   0.0555556
        k(    7) = (   0.0252881   0.0560203   0.0000000), wk =   0.0555556
        k(    8) = (   0.0252881  -0.0840304   0.0000000), wk =   0.0555556
        k(    9) = (   0.0505763   0.0000000   0.0000000), wk =   0.0555556
        k(   10) = (   0.0505763   0.0280101   0.0000000), wk =   0.0555556
        k(   11) = (   0.0505763   0.0560203   0.0000000), wk =   0.0555556
        k(   12) = (   0.0505763  -0.0840304   0.0000000), wk =   0.0555556
        k(   13) = (  -0.0758644   0.0000000   0.0000000), wk =   0.0277778
        k(   14) = (  -0.0758644   0.0280101   0.0000000), wk =   0.0555556
        k(   15) = (  -0.0758644   0.0560203   0.0000000), wk =   0.0555556
        k(   16) = (  -0.0758644  -0.0840304   0.0000000), wk =   0.0277778
        k(   17) = (  -0.0252881   0.0280101   0.0000000), wk =   0.0555556
        k(   18) = (  -0.0252881   0.0560203   0.0000000), wk =   0.0555556
        k(   19) = (  -0.0505763   0.0280101   0.0000000), wk =   0.0555556
        k(   20) = (  -0.0505763   0.0560203   0.0000000), wk =   0.0555556
        k(   21) = (   0.0000000   0.0000000   0.0000000), wk =   0.0277778
        k(   22) = (   0.0000000   0.0280101   0.0000000), wk =   0.0555556
        k(   23) = (   0.0000000   0.0560203   0.0000000), wk =   0.0555556
        k(   24) = (   0.0000000  -0.0840304   0.0000000), wk =   0.0277778
        k(   25) = (   0.0252881   0.0000000   0.0000000), wk =   0.0555556
        k(   26) = (   0.0252881   0.0280101   0.0000000), wk =   0.0555556
[...]
     atom:   44    charge:    2.0851    magn:    0.0008    constr:    0.0000
     atom:   45    charge:    2.0858    magn:    0.0004    constr:    0.0000
     atom:   46    charge:    3.1148    magn:   -0.0007    constr:    0.0000
     atom:   47    charge:    2.0806    magn:    0.0047    constr:    0.0000
     atom:   48    charge:    2.0837    magn:    0.0137    constr:    0.0000
     atom:   49    charge:    2.0517    magn:    0.2398    constr:    0.0000
     atom:   50    charge:    0.6722    magn:    0.0546    constr:    0.0000
     atom:   51    charge:    0.4218    magn:    0.0009    constr:    0.0000
     atom:   52    charge:    0.4312    magn:    0.0008    constr:    0.0000
     atom:   53    charge:    0.3676    magn:    0.0231    constr:    0.0000
     atom:   54    charge:    0.4231    magn:    0.0006    constr:    0.0000

     total energy              =   -3021.14978041 Ry
     Harris-Foulkes estimate   =   -3021.14999579 Ry
     estimated scf accuracy    <       0.00202773 Ry

     total magnetization       =     1.06 Bohr mag/cell
     absolute magnetization    =     1.23 Bohr mag/cell

[...]

     total energy              =   -3021.14955816 Ry
     Harris-Foulkes estimate   =   -3021.14955813 Ry
     estimated scf accuracy    <       0.00000097 Ry

[...]

     iteration # 10     ecut=    40.42 Ry     beta=0.10
     Davidson diagonalization with overlap
     ethr =  2.43E-10,  avg # of iterations =  3.0

     negative rho (up, down):  1.190E-02 1.197E-02

     Magnetic moment per site:
     atom:    1    charge:    3.1244    magn:   -0.0001    constr:    0.0000
     atom:    2    charge:    2.0897    magn:    0.0001    constr:    0.0000
     atom:    3    charge:    3.1198    magn:   -0.0000    constr:    0.0000
     atom:    4    charge:    2.0867    magn:   -0.0001    constr:    0.0000
     atom:    5    charge:    3.1161    magn:   -0.0003    constr:    0.0000
     atom:    6    charge:    2.0795    magn:    0.0022    constr:    0.0000
     atom:    7    charge:    3.1167    magn:   -0.0053    constr:    0.0000
     atom:    8    charge:    2.0793    magn:    0.0249    constr:    0.0000
     atom:    9    charge:    3.1244    magn:   -0.0001    constr:    0.0000
     atom:   10    charge:    2.0898    magn:    0.0001    constr:    0.0000
     atom:   11    charge:    3.1198    magn:   -0.0000    constr:    0.0000
     atom:   12    charge:    2.0871    magn:   -0.0000    constr:    0.0000
     atom:   13    charge:    3.1150    magn:   -0.0002    constr:    0.0000
     atom:   14    charge:    2.0939    magn:    0.0023    constr:    0.0000
     atom:   15    charge:    3.1184    magn:   -0.0008    constr:    0.0000
     atom:   16    charge:    2.0828    magn:    0.0047    constr:    0.0000
     atom:   17    charge:    2.0624    magn:    0.0008    constr:    0.0000
     atom:   18    charge:    3.1239    magn:   -0.0000    constr:    0.0000
     atom:   19    charge:    2.0875    magn:    0.0000    constr:    0.0000
     atom:   20    charge:    2.0847    magn:    0.0001    constr:    0.0000
     atom:   21    charge:    2.0847    magn:    0.0001    constr:    0.0000
     atom:   22    charge:    3.1199    magn:    0.0000    constr:    0.0000
     atom:   23    charge:    2.0908    magn:    0.0003    constr:    0.0000
     atom:   24    charge:    2.0754    magn:   -0.0000    constr:    0.0000
     atom:   25    charge:    2.0867    magn:    0.0000    constr:    0.0000
     atom:   26    charge:    3.1127    magn:   -0.0003    constr:    0.0000
     atom:   27    charge:    2.0803    magn:    0.0027    constr:    0.0000
     atom:   28    charge:    2.0839    magn:    0.0008    constr:    0.0000
     atom:   29    charge:    2.0860    magn:    0.0009    constr:    0.0000
     atom:   30    charge:    3.1171    magn:   -0.0008    constr:    0.0000
     atom:   31    charge:    2.0825    magn:    0.0006    constr:    0.0000
     atom:   32    charge:    2.0829    magn:    0.0065    constr:    0.0000
     atom:   33    charge:    2.0624    magn:    0.0008    constr:    0.0000
     atom:   34    charge:    3.1239    magn:   -0.0000    constr:    0.0000
     atom:   35    charge:    2.0875    magn:    0.0000    constr:    0.0000
     atom:   36    charge:    2.0847    magn:    0.0001    constr:    0.0000
     atom:   37    charge:    2.0847    magn:    0.0001    constr:    0.0000
     atom:   38    charge:    3.1200    magn:    0.0000    constr:    0.0000
     atom:   39    charge:    2.0839    magn:    0.0002    constr:    0.0000
     atom:   40    charge:    2.0756    magn:   -0.0001    constr:    0.0000
     atom:   41    charge:    2.0870    magn:   -0.0000    constr:    0.0000
     atom:   42    charge:    3.1151    magn:   -0.0003    constr:    0.0000
     atom:   43    charge:    2.0803    magn:    0.0032    constr:    0.0000
     atom:   44    charge:    2.0851    magn:    0.0010    constr:    0.0000
     atom:   45    charge:    2.0858    magn:    0.0006    constr:    0.0000
     atom:   46    charge:    3.1148    magn:   -0.0007    constr:    0.0000
     atom:   47    charge:    2.0806    magn:    0.0047    constr:    0.0000
     atom:   48    charge:    2.0837    magn:    0.0136    constr:    0.0000
     atom:   49    charge:    2.0517    magn:    0.2397    constr:    0.0000
     atom:   50    charge:    0.6737    magn:    0.0547    constr:    0.0000
     atom:   51    charge:    0.4216    magn:    0.0010    constr:    0.0000
     atom:   52    charge:    0.4327    magn:    0.0008    constr:    0.0000
     atom:   53    charge:    0.3675    magn:    0.0233    constr:    0.0000
     atom:   54    charge:    0.4234    magn:    0.0005    constr:    0.0000

     End of self-consistent calculation

 ------ SPIN UP ------------

          k = 0.0000 0.0000 0.0000 ( 34665 PWs)   bands (ev):

   -58.3041 -58.2691 -57.3860 -57.3803 -57.3473 -57.3096 -57.2583 -57.0894
   -57.0628 -57.0572 -57.0187 -56.9202 -56.8956 -56.8850 -56.7993 -56.7608
   -34.7493 -34.5727 -34.5439 -34.5107 -34.4157 -34.3589 -33.8810 -33.8687
   -33.7507 -33.6776 -33.6356 -33.5927 -33.5604 -33.5535 -33.5476 -33.5411
   -33.5295 -33.5146 -33.4892 -33.4878 -33.4733 -33.4717 -33.4689 -33.4500
   -33.3396 -33.3342 -33.3300 -33.3274 -33.3145 -33.2864 -33.2808 -33.2610
   -33.2406 -33.2354 -33.2349 -33.2255 -33.1970 -33.1749 -33.1402 -33.1388
   -33.1008 -33.0772 -33.0489 -33.0272 -33.0137 -32.9881 -32.9472 -32.8805
   -18.4693 -18.0365 -17.8122 -17.7118 -17.5513 -17.5298 -17.4858 -17.3841
   -17.3574 -17.2573 -17.0453 -17.0245 -17.0167 -16.9852 -16.9245 -16.8545
   -16.8353 -16.7980 -16.7401 -16.7079 -16.6893 -16.6568 -16.5928 -16.5887
   -16.4659 -16.4182 -16.3991 -16.3616 -16.3256 -16.1459 -16.0850 -15.5995
   -15.5387 -11.2317  -6.0479  -5.4967  -5.2826  -5.2027  -5.0939  -4.9920
    -4.9818  -4.9213  -4.8786  -4.7327  -4.6499  -4.5996  -4.5855  -4.5103
    -4.4290  -4.4137  -4.3524  -4.3163  -4.2347  -4.2189  -4.1986  -4.1420
    -4.0311  -4.0244  -3.9812  -3.9082  -3.8921  -3.8860  -3.8835  -3.8363
    -3.7766  -3.7562  -3.7220  -3.6766  -3.6311  -3.5831  -3.5418  -3.5278
    -3.5176  -3.4186  -3.4078  -3.3609  -3.2727  -3.2326  -3.1882  -3.0868
    -2.9215  -2.8966  -2.8507  -2.8028  -2.7456  -2.6936  -2.6719  -2.6613
    -2.6333  -2.5365  -2.4879  -2.4386  -2.3775  -2.3326  -2.2485  -2.2290
    -2.2246  -2.1598  -2.0686  -2.0409  -1.9984  -1.9590  -1.9295  -1.8986
    -1.8533  -1.7370  -1.6934  -1.6678  -1.6402  -1.6301  -1.5857  -1.5035
    -1.4204  -1.3666  -1.3523  -1.3373  -1.3137  -1.2679  -1.2234  -1.1700
    -1.1595  -1.1102  -1.1076  -1.0924  -1.0626  -0.9794  -0.8729  -0.8318
    -0.8080  -0.6928  -0.6866  -0.6237  -0.5518  -0.5104  -0.4827  -0.1861
     1.0267   1.1235   1.4184   1.6968   1.8049   1.9229   1.9704   2.0170
     2.0471   2.1344   2.2110   2.2318   2.2779   2.3968   2.4720   2.4857
     2.4930   2.5200   2.6227   2.6680   2.6729   2.6895   2.7117   2.8284
     2.8433   2.8879   2.9022   2.9552   2.9698   3.0228   3.0313   3.0530
     3.1068   3.1621   3.2005   3.2014   3.2491   3.2570   3.4127   3.4477
     3.4797   3.5219   3.5991   3.6277   3.6716   3.7157   3.8302   3.9575
     4.1054   4.1369   4.3279   4.4741   4.5959   4.7080   4.7858   4.8362
     5.0862   5.1342   5.2111   5.3549   5.3990   5.4047   5.4268   5.4343
     5.4496   5.5240   5.5561   5.6637   5.7201   5.7363   5.9076   5.9201
     5.9568   6.0764   6.0955   6.1378   6.2186   6.2969   6.4238   6.4910
     6.5440   6.5659   6.7838   6.8155   7.2126   7.9139   8.1539   8.1777
     8.3474   8.3905   8.6624   8.7179   8.7536   8.9754   9.1472   9.2437
     9.2944   9.4515   9.6227

[...]

          k =-0.0759 0.0000 0.0000 ( 34758 PWs)   bands (ev):

[...]

 ------ SPIN DOWN ----------

[...]

          k = 0.0506-0.0840 0.0000 ( 34628 PWs)   bands (ev):

[...]

          k =-0.0506 0.0560 0.0000 ( 34596 PWs)   bands (ev):

   -58.2956 -58.2780 -57.3804 -57.3740 -57.3560 -57.3130 -57.2580 -57.0928
   -57.0643 -57.0524 -57.0270 -56.9206 -56.9122 -56.8946 -56.7937 -56.7737
   -34.6551 -34.5657 -34.5512 -34.4855 -34.4595 -34.4393 -33.7863 -33.7806
   -33.6802 -33.6326 -33.6124 -33.5882 -33.5866 -33.5838 -33.5670 -33.5658
   -33.5428 -33.5298 -33.5283 -33.4945 -33.4905 -33.4640 -33.4416 -33.4142
   -33.3701 -33.3226 -33.3082 -33.3056 -33.2843 -33.2744 -33.2572 -33.2556
   -33.2545 -33.2455 -33.2418 -33.2389 -33.2196 -33.2137 -33.1794 -33.1564
   -33.1173 -33.0743 -33.0724 -33.0492 -33.0380 -33.0209 -33.0082 -32.9823
   -18.1062 -17.8172 -17.6998 -17.6118 -17.5956 -17.5558 -17.3787 -17.3673
   -17.2171 -17.2046 -17.1157 -17.0934 -16.9759 -16.9104 -16.8658 -16.8407
   -16.8219 -16.8059 -16.7600 -16.7341 -16.7192 -16.6259 -16.5950 -16.5048
   -16.4944 -16.4363 -16.4192 -16.4090 -16.2138 -16.1954 -15.8784 -15.6364
   -15.6145 -10.8348  -5.3001  -4.9901  -4.9395  -4.9315  -4.7816  -4.7739
    -4.7149  -4.6380  -4.5249  -4.5049  -4.4991  -4.4162  -4.4019  -4.3791
    -4.3595  -4.3258  -4.3077  -4.2463  -4.1986  -4.1744  -4.1645  -4.1125
    -4.1012  -4.0560  -4.0442  -3.9923  -3.9782  -3.9017  -3.8833  -3.8293
    -3.7801  -3.7369  -3.6883  -3.6103  -3.6028  -3.5524  -3.5057  -3.4342
    -3.3975  -3.3187  -3.2599  -3.2293  -3.1321  -3.1294  -3.0786  -3.0523
    -2.9937  -2.9760  -2.9564  -2.9033  -2.7996  -2.7625  -2.7476  -2.7042
    -2.6279  -2.5859  -2.5444  -2.5015  -2.4765  -2.4125  -2.3878  -2.3680
    -2.3494  -2.2881  -2.1933  -2.1707  -2.1455  -2.1269  -2.1008  -2.0462
    -2.0113  -1.9695  -1.9427  -1.8690  -1.8464  -1.7799  -1.7292  -1.6549
    -1.5643  -1.5472  -1.5367  -1.4945  -1.4414  -1.3833  -1.3511  -1.3041
    -1.2423  -1.1734  -1.0751  -1.0199  -0.9865  -0.9013  -0.8505  -0.8432
    -0.7913  -0.7047  -0.6905  -0.6691  -0.6539  -0.5512  -0.4735   0.3080
     1.3102   1.4999   1.6486   1.6703   1.8550   2.0061   2.0346   2.0699
     2.2457   2.2585   2.3627   2.3789   2.4352   2.4639   2.5506   2.5876
     2.6529   2.6981   2.7320   2.7466   2.8138   2.8449   2.8734   2.9057
     2.9363   2.9533   3.0090   3.0441   3.0748   3.1159   3.1474   3.1930
     3.1980   3.2530   3.2871   3.3271   3.3362   3.3793   3.4187   3.4694
     3.4839   3.5515   3.5806   3.6433   3.6701   3.7473   3.8069   3.8428
     3.8856   3.9624   4.1549   4.5060   4.5989   4.6184   4.7569   4.8244
     4.8910   4.9674   5.0126   5.1890   5.3042   5.3784   5.4138   5.4459
     5.5971   5.6184   5.6704   5.7192   5.8816   5.8991   5.9897   6.0085
     6.0706   6.1110   6.1726   6.2095   6.3153   6.3387   6.4139   6.4258
     6.5431   6.6165   6.7635   6.8098   7.1896   7.3609   7.5160   7.6196
     7.9334   8.0173   8.1026   8.3824   8.6065   8.7171   8.8040   9.0405
     9.1914   9.3317   9.4355

     the Fermi energy is    -0.2889 ev

!    total energy              =   -3021.14955813 Ry
     Harris-Foulkes estimate   =   -3021.14955823 Ry
     estimated scf accuracy    <       0.00000028 Ry

     The total energy is the sum of the following terms:

     one-electron contribution =  -40438.65991643 Ry
     hartree contribution      =   20290.72728410 Ry
     xc contribution           =    -553.22155292 Ry
     ewald contribution        =   17680.02442863 Ry
     smearing contrib. (-TS)   =      -0.01980150 Ry

     total magnetization       =     1.06 Bohr mag/cell
     absolute magnetization    =     1.23 Bohr mag/cell

     convergence has been achieved in  10 iterations

     Forces acting on atoms (Ry/au):

     negative rho (up, down):  1.190E-02 1.197E-02
     atom    1 type  1   force =     0.00018468   -0.00089922   -0.10470673
     atom    2 type  2   force =     0.00014387    0.00068231    0.04003101
     atom    3 type  1   force =     0.00074769   -0.00175189   -0.02054834
     atom    4 type  2   force =    -0.00326852    0.00312263   -0.00324186
     atom    5 type  1   force =     0.00034548    0.00006591    0.00032495
     atom    6 type  2   force =    -0.00012939   -0.00009780    0.00023667
     atom    7 type  1   force =    -0.00027882   -0.00000535   -0.00022869
     atom    8 type  2   force =    -0.00015061   -0.00017754   -0.00020585
     atom    9 type  1   force =    -0.00003279    0.00056604   -0.10483979
     atom   10 type  2   force =     0.00034780   -0.00021343    0.03600329
     atom   11 type  1   force =     0.00067982    0.00184004    0.00261064
     atom   12 type  2   force =    -0.00519796   -0.00266925   -0.00520284
     atom   13 type  1   force =     0.00041576    0.00008830   -0.00025020
     atom   14 type  2   force =     0.00013492   -0.00007867   -0.00006988
     atom   15 type  1   force =    -0.00011914   -0.00004950    0.00004878
     atom   16 type  2   force =    -0.00018902    0.00001227   -0.00034633
     atom   17 type  2   force =     0.00000740   -0.00001329    0.06654802
     atom   18 type  1   force =     0.00005713    0.00002953    0.13145133
     atom   19 type  2   force =     0.00017653   -0.00052875   -0.08522001
     atom   20 type  2   force =    -0.05792447    0.00014199   -0.03609083
     atom   21 type  2   force =     0.05781467   -0.00004842   -0.03605105
     atom   22 type  1   force =    -0.00043049    0.00074778    0.08016635
     atom   23 type  2   force =     0.00019949   -0.00004955    0.00003189
     atom   24 type  2   force =     0.00064116    0.00185851   -0.03467139
     atom   25 type  2   force =     0.00414051    0.00332552   -0.00510872
     atom   26 type  1   force =     0.00040755   -0.00004722    0.00009061
     atom   27 type  2   force =    -0.00010170   -0.00012699    0.00003886
     atom   28 type  2   force =     0.00005686   -0.00019750   -0.00002331
     atom   29 type  2   force =    -0.00000276   -0.00007781    0.00006878
     atom   30 type  1   force =    -0.00020457   -0.00015044    0.00013330
     atom   31 type  2   force =     0.00010520   -0.00007997   -0.00005283
     atom   32 type  2   force =    -0.00012050   -0.00002876    0.00012025
     atom   33 type  2   force =    -0.00016755    0.00005044    0.06628358
     atom   34 type  1   force =     0.00007663   -0.00003309    0.13123234
     atom   35 type  2   force =     0.00018764   -0.00012859   -0.08482998
     atom   36 type  2   force =    -0.05782117    0.00006483   -0.03570308
     atom   37 type  2   force =     0.05798849   -0.00017660   -0.03609919
     atom   38 type  1   force =    -0.00037484   -0.00020453    0.07983902
     atom   39 type  2   force =     0.00007621   -0.00026044   -0.00009306
     atom   40 type  2   force =     0.00048797    0.00124008   -0.03527959
     atom   41 type  2   force =     0.00588763   -0.00243453   -0.00723531
     atom   42 type  1   force =     0.00024249   -0.00007001    0.00002734
     atom   43 type  2   force =    -0.00019794   -0.00009759    0.00003322
     atom   44 type  2   force =     0.00000719   -0.00015912   -0.00003360
     atom   45 type  2   force =     0.00000038   -0.00016793    0.00005346
     atom   46 type  1   force =    -0.00016635   -0.00010008    0.00011058
     atom   47 type  2   force =    -0.00010756   -0.00014495    0.00009300
     atom   48 type  2   force =    -0.00012478    0.00001934    0.00036798
     atom   49 type  2   force =    -0.00039793   -0.00047794   -0.00014740
     atom   50 type  3   force =    -0.01602155    0.00848936   -0.01219757
     atom   51 type  4   force =     0.00043003   -0.00150729    0.00113347
     atom   52 type  4   force =     0.01491493   -0.00936781    0.01396623
     atom   53 type  4   force =    -0.00146736   -0.00045722   -0.00053099
     atom   54 type  4   force =    -0.00190834    0.00073420   -0.00203651

     Total force =     0.343732     Total SCF correction =     0.001466
 !ASE

     Writing output data file calc.save

     General routines

     Parallel routines

   This run was terminated on:  13: 4:27  26Feb2018

   JOB DONE.