     Program PWSCF v.5.1rc2 (svn rev. ) starts on 10Mar2018 at  3:57:27

     Current dimensions of program PWSCF are:
     Max number of different atomic species (ntypx) = 10
     Max number of k-points (npk) =  40000
     Max angular momentum in pseudopotentials (lmaxx) =  3

     IMPORTANT: XC functional enforced from input :
     Exchange-correlation      = BEEF ( 1  4 27 13 2)
     Any further DFT definition will be discarded
     Please, verify this is what you really want

     Subspace diagonalization in iterative solution of the eigenvalue problem:
     a serial algorithm will be used

     Generating pointlists ...
     new r_m :   0.4125 (alat units)  0.7795 (a.u.) for type    1
     new r_m :   0.4125 (alat units)  0.7795 (a.u.) for type    2
     new r_m :   0.4125 (alat units)  0.7795 (a.u.) for type    3

     bravais-lattice index     =            0
     lattice parameter (alat)  =       1.8897  a.u.
     unit-cell volume          =    7990.9933 (a.u.)^3
     number of atoms/cell      =           51
     number of atomic types    =            3
     number of electrons       =       400.00
     number of Kohn-Sham states=          300
     kinetic-energy cutoff     =      40.4243  Ry
     charge density cutoff     =     404.2426  Ry
     convergence threshold     =      7.3E-07
     mixing beta               =       0.1000
     number of iterations used =           10  plain     mixing
     Exchange-correlation      = BEEF ( 1  4 27 13 2)
     nstep                     =           50

     celldm(1)=   1.889726  celldm(2)=   0.000000  celldm(3)=   0.000000
     celldm(4)=   0.000000  celldm(5)=   0.000000  celldm(6)=   0.000000

     crystal axes: (cart. coord. in units of alat)
               a(1) = (   6.590708   0.000000   0.000000 )
               a(2) = (   0.000000   5.950229   0.000000 )
               a(3) = (   0.000000   0.000000  30.195235 )

     reciprocal axes: (cart. coord. in units 2 pi/alat)
               b(1) = (  0.151729  0.000000  0.000000 )
               b(2) = (  0.000000  0.168061  0.000000 )
               b(3) = (  0.000000  0.000000  0.033118 )

     PseudoPot. # 1 for Ti read from file:
     /home/alatimer/bin/psp/esp_psp_w_gbrvRu/Ti.UPF
     MD5 check sum: 8e4df49b7f0d34bbd5052bf3f5ea0213
     Pseudo is Ultrasoft, Zval = 12.0
     Generated by new atomic code, or converted to UPF format
     Using radial grid of  851 points,  6 beta functions with:
                l(1) =   0
                l(2) =   0
                l(3) =   1
                l(4) =   1
                l(5) =   2
                l(6) =   2
     Q(r) pseudized with  8 coefficients,  rinner =    1.000   1.000   1.000
                                                       1.000   1.000

     PseudoPot. # 2 for  O read from file:
     /home/alatimer/bin/psp/esp_psp_w_gbrvRu/O.UPF
     MD5 check sum: e057bbcf3229fb5d8c36c0c92f9568b4
     Pseudo is Ultrasoft + core correction, Zval =  6.0
     Generated using "atomic" code by A. Dal Corso  v.5.0.2 svn rev. 9415
     Using radial grid of 1095 points,  4 beta functions with:
                l(1) =   0
                l(2) =   0
                l(3) =   1
                l(4) =   1
     Q(r) pseudized with 0 coefficients

     PseudoPot. # 3 for  N read from file:
     /home/alatimer/bin/psp/esp_psp_w_gbrvRu/N.UPF
     MD5 check sum: ed8b6a90f28a53b7d71920e7015d2dd6
     Pseudo is Ultrasoft + core correction, Zval =  5.0
     Generated using "atomic" code by A. Dal Corso  v.5.0.2 svn rev. 9415
     Using radial grid of 1085 points,  4 beta functions with:
                l(1) =   0
                l(2) =   0
                l(3) =   1
                l(4) =   1
     Q(r) pseudized with 0 coefficients

     vdW kernel table read from file vdW_kernel_table
     MD5 check sum: 095c7af220d748ca6e76c0b4c6cfb241

     atomic species   valence    mass     pseudopotential
        Ti1           12.00    47.88000     Ti( 1.00)
        O1             6.00    15.99940      O( 1.00)
        N1             5.00    14.00670      N( 1.00)

     Starting magnetic structure
     atomic species   magnetization
        Ti1          0.250
        O1           0.500
        N1           0.600

     No symmetry found

   Cartesian axes

     site n.     atom                  positions (alat units)
         1           Ti1 tau(   1) = (   1.6476770   0.7437786   2.6545865  )
         2           O1  tau(   2) = (   1.6476770   2.2313359   3.9361215  )
         3           Ti1 tau(   3) = (   1.6476770   2.2313359   5.9499405  )
         4           O1  tau(   4) = (   0.3661420   0.7437786   5.9499405  )
         5           Ti1 tau(   5) = (   1.5280591   0.7315068   9.1973351  )
         6           O1  tau(   6) = (   1.6613943   2.1836906  10.6091769  )
         7           Ti1 tau(   7) = (   1.6665780   2.2096385  12.4157880  )
         8           O1  tau(   8) = (   0.4439715   0.7264440  12.7601561  )
         9           Ti1 tau(   9) = (   1.6476770   3.7188931   2.6545865  )
        10           O1  tau(  10) = (   1.6476770   5.2064503   3.9361215  )
        11           Ti1 tau(  11) = (   1.6476770   5.2064503   5.9499405  )
        12           O1  tau(  12) = (   0.3661420   3.7188931   5.9499405  )
        13           Ti1 tau(  13) = (   1.5319291   3.7072436   9.2118370  )
        14           O1  tau(  14) = (   1.6575607   5.2126413  10.6087893  )
        15           Ti1 tau(  15) = (   1.6606453   5.1916961  12.4165775  )
        16           O1  tau(  16) = (   0.4123725   3.7022030  12.5882193  )
        17           O1  tau(  17) = (   1.6476770   2.2313359   1.3730516  )
        18           Ti1 tau(  18) = (   4.9430310   2.2313359   2.6545865  )
        19           O1  tau(  19) = (   4.9430310   2.2313359   4.6684056  )
        20           O1  tau(  20) = (   6.2245660   0.7437786   2.6545865  )
        21           O1  tau(  21) = (   3.6614961   0.7437786   2.6545865  )
        22           Ti1 tau(  22) = (   4.9430310   0.7437786   5.9499405  )
        23           O1  tau(  23) = (   1.6517842   2.2287041   8.0298356  )
        24           O1  tau(  24) = (   4.9430310   2.2313359   7.2314755  )
        25           O1  tau(  25) = (   2.9292120   0.7437786   5.9499405  )
        26           Ti1 tau(  26) = (   4.8605205   2.2076595   9.4238065  )
        27           O1  tau(  27) = (   4.9553550   2.1639423  11.2756624  )
        28           O1  tau(  28) = (   6.2690671   0.7288246   9.2688367  )
        29           O1  tau(  29) = (   3.6660957   0.7249325   9.2867299  )
        30           Ti1 tau(  30) = (   4.9284588   0.7282168  12.7798302  )
        31           O1  tau(  31) = (   4.9953437   2.2216212  13.8477397  )
        32           O1  tau(  32) = (   2.9112183   0.7266397  12.7651274  )
        33           O1  tau(  33) = (   1.6476770   5.2064503   1.3730516  )
        34           Ti1 tau(  34) = (   4.9430310   5.2064503   2.6545865  )
        35           O1  tau(  35) = (   4.9430310   5.2064503   4.6684056  )
        36           O1  tau(  36) = (   6.2245660   3.7188931   2.6545865  )
        37           O1  tau(  37) = (   3.6614961   3.7188931   2.6545865  )
        38           Ti1 tau(  38) = (   4.9430310   3.7188931   5.9499405  )
        39           O1  tau(  39) = (   1.6524867   5.1852222   8.0294571  )
        40           O1  tau(  40) = (   4.9430310   5.2064503   7.2314755  )
        41           O1  tau(  41) = (   2.9292120   3.7188931   5.9499405  )
        42           Ti1 tau(  42) = (   4.8610151   5.1886528   9.4241876  )
        43           O1  tau(  43) = (   4.9550983   5.2107439  11.2753448  )
        44           O1  tau(  44) = (   6.2713562   3.7024388   9.3047907  )
        45           O1  tau(  45) = (   3.6650622   3.7005085   9.3135888  )
        46           Ti1 tau(  46) = (   5.0160509   3.7038162  12.7585864  )
        47           O1  tau(  47) = (   4.9984032   5.1727849  13.8485277  )
        48           O1  tau(  48) = (   2.9655234   3.7049164  12.5317472  )
        49           O1  tau(  49) = (   2.2548149   3.7063572  14.5693114  )
        50           N1  tau(  50) = (   2.4020298   3.6667063  16.9651815  )
        51           N1  tau(  51) = (   2.1425646   3.6919273  15.8611024  )

     number of k points=    40  Fermi-Dirac smearing, width (Ry)=  0.0073
                       cart. coord. in units 2pi/alat
        k(    1) = (   0.0000000   0.0000000   0.0000000), wk =   0.0277778
        k(    2) = (   0.0000000   0.0280101   0.0000000), wk =   0.0555556
        k(    3) = (   0.0000000   0.0560203   0.0000000), wk =   0.0555556
        k(    4) = (   0.0000000  -0.0840304   0.0000000), wk =   0.0277778
        k(    5) = (   0.0252881   0.0000000   0.0000000), wk =   0.0555556
        k(    6) = (   0.0252881   0.0280101   0.0000000), wk =   0.0555556
        k(    7) = (   0.0252881   0.0560203   0.0000000), wk =   0.0555556
        k(    8) = (   0.0252881  -0.0840304   0.0000000), wk =   0.0555556
        k(    9) = (   0.0505763   0.0000000   0.0000000), wk =   0.0555556
        k(   10) = (   0.0505763   0.0280101   0.0000000), wk =   0.0555556
        k(   11) = (   0.0505763   0.0560203   0.0000000), wk =   0.0555556
        k(   12) = (   0.0505763  -0.0840304   0.0000000), wk =   0.0555556
        k(   13) = (  -0.0758644   0.0000000   0.0000000), wk =   0.0277778
        k(   14) = (  -0.0758644   0.0280101   0.0000000), wk =   0.0555556
        k(   15) = (  -0.0758644   0.0560203   0.0000000), wk =   0.0555556
        k(   16) = (  -0.0758644  -0.0840304   0.0000000), wk =   0.0277778
        k(   17) = (  -0.0252881   0.0280101   0.0000000), wk =   0.0555556
        k(   18) = (  -0.0252881   0.0560203   0.0000000), wk =   0.0555556
        k(   19) = (  -0.0505763   0.0280101   0.0000000), wk =   0.0555556
        k(   20) = (  -0.0505763   0.0560203   0.0000000), wk =   0.0555556
        k(   21) = (   0.0000000   0.0000000   0.0000000), wk =   0.0277778
        k(   22) = (   0.0000000   0.0280101   0.0000000), wk =   0.0555556
        k(   23) = (   0.0000000   0.0560203   0.0000000), wk =   0.0555556
        k(   24) = (   0.0000000  -0.0840304   0.0000000), wk =   0.0277778
        k(   25) = (   0.0252881   0.0000000   0.0000000), wk =   0.0555556
        k(   26) = (   0.0252881   0.0280101   0.0000000), wk =   0.0555556
        k(   27) = (   0.0252881   0.0560203   0.0000000), wk =   0.0555556
        k(   28) = (   0.0252881  -0.0840304   0.0000000), wk =   0.0555556
        k(   29) = (   0.0505763   0.0000000   0.0000000), wk =   0.0555556
        k(   30) = (   0.0505763   0.0280101   0.0000000), wk =   0.0555556
        k(   31) = (   0.0505763   0.0560203   0.0000000), wk =   0.0555556
        k(   32) = (   0.0505763  -0.0840304   0.0000000), wk =   0.0555556
        k(   33) = (  -0.0758644   0.0000000   0.0000000), wk =   0.0277778
        k(   34) = (  -0.0758644   0.0280101   0.0000000), wk =   0.0555556
        k(   35) = (  -0.0758644   0.0560203   0.0000000), wk =   0.0555556
        k(   36) = (  -0.0758644  -0.0840304   0.0000000), wk =   0.0277778
[...]
     atom:   41    charge:    2.1139    magn:    0.9552    constr:    0.0000
     atom:   42    charge:    3.1954    magn:    0.7298    constr:    0.0000
     atom:   43    charge:    2.0906    magn:    0.9632    constr:    0.0000
     atom:   44    charge:    2.1073    magn:    0.9503    constr:    0.0000
     atom:   45    charge:    2.1077    magn:    0.9505    constr:    0.0000
     atom:   46    charge:    3.1760    magn:    0.7360    constr:    0.0000
     atom:   47    charge:    2.0127    magn:    1.0084    constr:    0.0000
     atom:   48    charge:    2.0324    magn:    1.0171    constr:    0.0000
     atom:   49    charge:    1.9596    magn:    0.9680    constr:    0.0000
     atom:   50    charge:    1.1709    magn:    0.6863    constr:    0.0000
     atom:   51    charge:    1.2094    magn:    0.7053    constr:    0.0000

     total energy              =   -2914.40338347 Ry
     Harris-Foulkes estimate   =   -3046.69899049 Ry
     estimated scf accuracy    <     714.18226432 Ry

     total magnetization       =    45.56 Bohr mag/cell
     absolute magnetization    =    49.87 Bohr mag/cell

[...]

     iteration # 14     ecut=    40.42 Ry     beta=0.10
     Davidson diagonalization with overlap
     c_bands:  1 eigenvalues not converged
     ethr =  2.01E-04,  avg # of iterations =  4.6

[...]

     iteration # 22     ecut=    40.42 Ry     beta=0.10
     Davidson diagonalization with overlap
     c_bands:  1 eigenvalues not converged
     ethr =  9.79E-07,  avg # of iterations =  5.6

[...]

     total energy              =   -3044.95673841 Ry
     Harris-Foulkes estimate   =   -3044.95673078 Ry
     estimated scf accuracy    <       0.00000110 Ry

[...]

     iteration # 31     ecut=    40.42 Ry     beta=0.10
     Davidson diagonalization with overlap
     ethr =  2.74E-10,  avg # of iterations =  2.0

     negative rho (up, down):  1.158E-02 1.158E-02

     Magnetic moment per site:
     atom:    1    charge:    3.1250    magn:   -0.0002    constr:    0.0000
     atom:    2    charge:    2.0894    magn:    0.0001    constr:    0.0000
     atom:    3    charge:    3.1196    magn:   -0.0001    constr:    0.0000
     atom:    4    charge:    2.0870    magn:    0.0000    constr:    0.0000
     atom:    5    charge:    3.1170    magn:   -0.0001    constr:    0.0000
     atom:    6    charge:    2.0917    magn:    0.0001    constr:    0.0000
     atom:    7    charge:    3.1185    magn:   -0.0000    constr:    0.0000
     atom:    8    charge:    2.0816    magn:    0.0001    constr:    0.0000
     atom:    9    charge:    3.1250    magn:   -0.0002    constr:    0.0000
     atom:   10    charge:    2.0894    magn:    0.0001    constr:    0.0000
     atom:   11    charge:    3.1196    magn:   -0.0001    constr:    0.0000
     atom:   12    charge:    2.0870    magn:    0.0000    constr:    0.0000
     atom:   13    charge:    3.1148    magn:   -0.0001    constr:    0.0000
     atom:   14    charge:    2.0911    magn:    0.0001    constr:    0.0000
     atom:   15    charge:    3.1194    magn:   -0.0000    constr:    0.0000
     atom:   16    charge:    2.0883    magn:    0.0001    constr:    0.0000
     atom:   17    charge:    2.0623    magn:    0.0004    constr:    0.0000
     atom:   18    charge:    3.1239    magn:   -0.0000    constr:    0.0000
     atom:   19    charge:    2.0878    magn:   -0.0000    constr:    0.0000
     atom:   20    charge:    2.0847    magn:   -0.0001    constr:    0.0000
     atom:   21    charge:    2.0847    magn:   -0.0001    constr:    0.0000
     atom:   22    charge:    3.1197    magn:   -0.0000    constr:    0.0000
     atom:   23    charge:    2.0908    magn:    0.0001    constr:    0.0000
     atom:   24    charge:    2.0777    magn:    0.0001    constr:    0.0000
     atom:   25    charge:    2.0869    magn:    0.0000    constr:    0.0000
     atom:   26    charge:    3.1165    magn:   -0.0001    constr:    0.0000
     atom:   27    charge:    2.0824    magn:    0.0002    constr:    0.0000
     atom:   28    charge:    2.0879    magn:    0.0001    constr:    0.0000
     atom:   29    charge:    2.0877    magn:    0.0001    constr:    0.0000
     atom:   30    charge:    3.1168    magn:   -0.0001    constr:    0.0000
     atom:   31    charge:    2.0816    magn:    0.0003    constr:    0.0000
     atom:   32    charge:    2.0843    magn:    0.0001    constr:    0.0000
     atom:   33    charge:    2.0623    magn:    0.0004    constr:    0.0000
     atom:   34    charge:    3.1239    magn:   -0.0001    constr:    0.0000
     atom:   35    charge:    2.0878    magn:   -0.0000    constr:    0.0000
     atom:   36    charge:    2.0847    magn:   -0.0001    constr:    0.0000
     atom:   37    charge:    2.0847    magn:   -0.0001    constr:    0.0000
     atom:   38    charge:    3.1197    magn:   -0.0000    constr:    0.0000
     atom:   39    charge:    2.0912    magn:    0.0001    constr:    0.0000
     atom:   40    charge:    2.0777    magn:    0.0001    constr:    0.0000
     atom:   41    charge:    2.0869    magn:    0.0000    constr:    0.0000
     atom:   42    charge:    3.1181    magn:   -0.0001    constr:    0.0000
     atom:   43    charge:    2.0838    magn:    0.0002    constr:    0.0000
     atom:   44    charge:    2.0864    magn:    0.0001    constr:    0.0000
     atom:   45    charge:    2.0871    magn:    0.0001    constr:    0.0000
     atom:   46    charge:    3.1171    magn:   -0.0001    constr:    0.0000
     atom:   47    charge:    2.0797    magn:    0.0003    constr:    0.0000
     atom:   48    charge:    2.0835    magn:    0.0002    constr:    0.0000
     atom:   49    charge:    2.0519    magn:   -0.0000    constr:    0.0000
     atom:   50    charge:    1.2590    magn:   -0.0000    constr:    0.0000
     atom:   51    charge:    1.2859    magn:    0.0000    constr:    0.0000

     End of self-consistent calculation

 ------ SPIN UP ------------

          k = 0.0000 0.0000 0.0000 ( 34665 PWs)   bands (ev):

   -57.8238 -57.7889 -57.5137 -57.4581 -57.3899 -57.3536 -57.2794 -57.2441
   -57.1819 -57.1466 -57.1181 -57.0827 -56.8845 -56.8123 -56.2852 -56.2499
   -34.2598 -34.1046 -34.0760 -34.0605 -34.0252 -33.9308 -33.8699 -33.8655
   -33.8279 -33.7726 -33.7338 -33.7235 -33.7195 -33.6883 -33.6730 -33.6688
   -33.6498 -33.6403 -33.6189 -33.5576 -33.5263 -33.4606 -33.4605 -33.4398
   -33.4329 -33.4304 -33.3883 -33.3836 -33.3794 -33.3617 -33.3573 -33.3369
   -33.3137 -33.3078 -33.2807 -33.2746 -33.2493 -33.1455 -33.1407 -33.0837
   -33.0395 -32.9388 -32.7039 -32.6361 -32.6100 -32.5078 -32.4160 -32.3078
   -24.2455 -21.0069 -18.1773 -17.9762 -17.7531 -17.6311 -17.4970 -17.4953
   -17.2135 -17.1925 -17.1475 -17.0551 -17.0525 -17.0106 -16.9952 -16.9224
   -16.8751 -16.8630 -16.8411 -16.8001 -16.7376 -16.6913 -16.5737 -16.5507
   -16.5228 -16.5100 -16.4228 -16.3130 -16.2774 -16.2462 -16.1099 -16.0802
   -14.8694 -14.7847  -9.7927  -7.4857  -7.4730  -5.9971  -5.5691  -5.5124
    -5.3615  -5.3533  -5.2961  -4.9985  -4.9393  -4.5892  -4.5853  -4.5499
    -4.5405  -4.4929  -4.3684  -4.2719  -4.2235  -4.2058  -4.1713  -4.1684
    -4.1645  -4.1564  -4.0917  -4.0868  -4.0103  -3.9878  -3.9566  -3.9149
    -3.8817  -3.8082  -3.7746  -3.7501  -3.7208  -3.6447  -3.6234  -3.5474
    -3.5456  -3.5201  -3.4530  -3.3343  -3.2033  -3.1680  -3.0647  -3.0057
    -2.9631  -2.8774  -2.8249  -2.8156  -2.7436  -2.7421  -2.7263  -2.6010
    -2.5636  -2.5083  -2.4363  -2.4001  -2.3723  -2.3536  -2.3254  -2.2837
    -2.2782  -2.2489  -2.2122  -2.1807  -2.1764  -2.0514  -1.9937  -1.8948
    -1.7523  -1.7499  -1.7233  -1.6820  -1.6542  -1.6429  -1.5654  -1.5439
    -1.4436  -1.4344  -1.4109  -1.3998  -1.3876  -1.2852  -1.2339  -1.2243
    -1.2036  -1.1342  -1.0738  -1.0181  -0.9190  -0.7447  -0.7153  -0.7108
    -0.6478  -0.5201  -0.3734  -0.2367  -0.1736  -0.0100   0.1165   0.1318
     1.5180   1.5469   1.8319   1.8690   1.8801   1.9004   2.0681   2.0874
     2.1220   2.2386   2.3577   2.3714   2.4066   2.4253   2.4629   2.4781
     2.5256   2.5631   2.6208   2.6663   2.6676   2.6801   2.7592   2.8073
     2.8667   2.8941   2.9858   2.9942   2.9954   3.0185   3.0638   3.0811
     3.0928   3.0965   3.1038   3.1386   3.2361   3.2979   3.3006   3.3151
     3.3525   3.3829   3.4168   3.5303   3.5329   3.6702   3.8771   3.9836
     3.9996   4.0426   4.0599   4.1794   4.2522   4.4592   4.5337   4.6571
     4.9066   4.9304   5.0111   5.1257   5.2064   5.3889   5.3946   5.4214
     5.4966   5.5819   5.6282   5.6369   5.7147   5.7321   5.7370   5.7550
     5.9222   5.9602   6.0111   6.0201   6.0976   6.1421   6.2039   6.2196
     6.4740   6.6169   6.7687   6.7842   6.8807   7.1633   7.2758   7.2899
     7.9090   7.9866   8.1602   8.4051   8.7015   8.9105   8.9118   8.9528
     9.2120   9.2588   9.2840   9.3540

[...]

          k =-0.0759 0.0000 0.0000 ( 34758 PWs)   bands (ev):

[...]

 ------ SPIN DOWN ----------

[...]

          k = 0.0506-0.0840 0.0000 ( 34628 PWs)   bands (ev):

[...]

          k =-0.0506 0.0560 0.0000 ( 34596 PWs)   bands (ev):

   -57.8160 -57.7985 -57.5093 -57.4632 -57.3814 -57.3621 -57.2709 -57.2533
   -57.1733 -57.1554 -57.1098 -57.0920 -56.8819 -56.8174 -56.2777 -56.2600
   -34.1666 -34.0985 -34.0842 -34.0012 -33.9714 -33.9647 -33.9552 -33.8060
   -33.7761 -33.7660 -33.7522 -33.7147 -33.7064 -33.6940 -33.6795 -33.6763
   -33.5911 -33.5794 -33.5759 -33.5379 -33.5362 -33.5172 -33.4839 -33.4647
   -33.4537 -33.4402 -33.4085 -33.3825 -33.3813 -33.3694 -33.3614 -33.3577
   -33.3414 -33.3285 -33.3049 -33.3028 -33.2681 -33.1472 -33.1355 -33.0878
   -33.0587 -33.0359 -32.6327 -32.6173 -32.6088 -32.4866 -32.4406 -32.4110
   -24.2454 -21.0066 -17.8728 -17.6281 -17.4529 -17.4311 -17.4128 -17.3406
   -17.3018 -17.2689 -17.1969 -17.1644 -17.0928 -17.0734 -17.0074 -16.9864
   -16.9841 -16.9149 -16.9049 -16.8399 -16.8005 -16.7738 -16.7074 -16.6617
   -16.5587 -16.4569 -16.4139 -16.3152 -16.3138 -16.2855 -16.2484 -16.1824
   -14.8924 -14.8561  -9.7900  -7.4905  -7.4718  -5.9932  -5.2149  -4.7835
    -4.7324  -4.7226  -4.6847  -4.6485  -4.6381  -4.6013  -4.4963  -4.4782
    -4.4533  -4.4375  -4.3460  -4.2933  -4.2769  -4.2712  -4.2290  -4.2087
    -4.1841  -4.1718  -4.1580  -4.1309  -4.0780  -4.0410  -4.0299  -3.9999
    -3.9446  -3.8851  -3.8196  -3.7840  -3.6813  -3.6526  -3.5090  -3.4830
    -3.4653  -3.3977  -3.3794  -3.2028  -3.1155  -3.0767  -3.0281  -2.9857
    -2.9593  -2.9118  -2.8917  -2.8560  -2.8093  -2.7670  -2.7129  -2.7078
    -2.6351  -2.6193  -2.5910  -2.5146  -2.4854  -2.4672  -2.4498  -2.4276
    -2.3998  -2.3571  -2.2874  -2.2750  -2.2503  -2.2249  -2.1781  -2.1640
    -2.0924  -2.0530  -2.0221  -1.9809  -1.9353  -1.8542  -1.7859  -1.7702
    -1.7022  -1.6021  -1.5284  -1.4832  -1.4492  -1.3711  -1.3347  -1.2265
    -1.1742  -1.1358  -1.0919  -1.0302  -0.9865  -0.9227  -0.9098  -0.8322
    -0.7986  -0.7843  -0.6553  -0.4650  -0.0537  -0.0167  -0.0030   0.0531
     1.7391   1.9360   1.9562   2.0180   2.0738   2.1134   2.1231   2.1769
     2.2235   2.2705   2.3865   2.4230   2.4313   2.4573   2.4761   2.5015
     2.5959   2.6112   2.6448   2.6673   2.7053   2.7297   2.7934   2.8243
     2.8933   2.9064   2.9460   2.9768   3.0259   3.0651   3.1912   3.2192
     3.2368   3.2672   3.3146   3.3282   3.3718   3.3889   3.4070   3.4682
     3.5453   3.5834   3.6098   3.6901   3.7413   3.7710   3.7810   3.7971
     3.8394   3.9717   4.0237   4.1504   4.2108   4.4536   4.6482   4.6782
     4.7506   4.7534   4.8977   5.0026   5.0744   5.1418   5.2117   5.2373
     5.3083   5.4662   5.5688   5.6358   5.7002   5.7411   5.8321   5.9726
     6.0142   6.1170   6.1675   6.2107   6.2569   6.3051   6.4677   6.4862
     6.5514   6.5924   6.6490   6.6826   6.8384   6.8619   6.9761   7.3086
     7.3303   7.7364   7.7666   8.0205   8.0985   8.1777   8.5799   8.6727
     8.8408   8.9128   9.1456   9.3672

     the Fermi energy is     0.8657 ev

!    total energy              =   -3044.95676773 Ry
     Harris-Foulkes estimate   =   -3044.95673861 Ry
     estimated scf accuracy    <       0.00000051 Ry

     The total energy is the sum of the following terms:

     one-electron contribution =  -40855.54339568 Ry
     hartree contribution      =   20500.09789300 Ry
     xc contribution           =    -557.16387637 Ry
     ewald contribution        =   17867.65281706 Ry
     smearing contrib. (-TS)   =      -0.00020575 Ry

     total magnetization       =     0.00 Bohr mag/cell
     absolute magnetization    =     0.01 Bohr mag/cell

     convergence has been achieved in  31 iterations

     Forces acting on atoms (Ry/au):

     negative rho (up, down):  1.158E-02 1.158E-02
     atom    1 type  1   force =    -0.00008498    0.00030222   -0.13597517
     atom    2 type  2   force =     0.00010432   -0.00008123    0.07517652
     atom    3 type  1   force =     0.00126792    0.00108853   -0.05985493
     atom    4 type  2   force =     0.00661092   -0.00006852    0.00968268
     atom    5 type  1   force =    -0.00131540   -0.00013768   -0.00001821
     atom    6 type  2   force =    -0.00183500   -0.00352878   -0.00898111
     atom    7 type  1   force =     0.01101996    0.00800045   -0.01651844
     atom    8 type  2   force =     0.00047308   -0.00012235    0.00064642
     atom    9 type  1   force =     0.00013012    0.00035362   -0.13604601
     atom   10 type  2   force =     0.00016639   -0.00003341    0.07512124
     atom   11 type  1   force =     0.00126595   -0.00086627   -0.05998312
     atom   12 type  2   force =     0.00604807   -0.00011125    0.00854892
     atom   13 type  1   force =     0.00013745   -0.00015300   -0.00036427
     atom   14 type  2   force =    -0.00201791    0.00295061   -0.00905080
     atom   15 type  1   force =     0.01119313   -0.00779301   -0.01679276
     atom   16 type  2   force =     0.00705720    0.00009026    0.01070453
     atom   17 type  2   force =    -0.00002487   -0.00005737    0.07998885
     atom   18 type  1   force =    -0.00006015    0.00022386    0.11905121
     atom   19 type  2   force =     0.00039045    0.00018803   -0.06812672
     atom   20 type  2   force =    -0.06269147    0.00004954   -0.03209798
     atom   21 type  2   force =     0.06274040    0.00015064   -0.03256930
     atom   22 type  1   force =    -0.00049291   -0.00012931    0.06427687
     atom   23 type  2   force =     0.00015635    0.00061720   -0.00264469
     atom   24 type  2   force =     0.00049561    0.00003921   -0.02241904
     atom   25 type  2   force =    -0.00645228   -0.00025606    0.00823870
     atom   26 type  1   force =    -0.00012400   -0.00004531    0.00250714
     atom   27 type  2   force =     0.00251561   -0.00142865   -0.00239954
     atom   28 type  2   force =    -0.00004273   -0.00001759   -0.00148242
     atom   29 type  2   force =     0.00012357   -0.00005513   -0.00053769
     atom   30 type  1   force =     0.00576394    0.00035648   -0.00067485
     atom   31 type  2   force =    -0.00211666    0.00158765    0.00109677
     atom   32 type  2   force =     0.00159622   -0.00009953    0.00186506
     atom   33 type  2   force =    -0.00000098    0.00015201    0.08005862
     atom   34 type  1   force =    -0.00007284    0.00023351    0.11904889
     atom   35 type  2   force =     0.00035716    0.00032471   -0.06807768
     atom   36 type  2   force =    -0.06268668    0.00009829   -0.03230637
     atom   37 type  2   force =     0.06285299    0.00017244   -0.03205904
     atom   38 type  1   force =    -0.00069437    0.00000760    0.06411320
     atom   39 type  2   force =     0.00019266   -0.00082058   -0.00263083
     atom   40 type  2   force =     0.00060552   -0.00227659   -0.02257418
     atom   41 type  2   force =    -0.00619699   -0.00030920    0.00764156
     atom   42 type  1   force =    -0.00010663   -0.00008401    0.00250555
     atom   43 type  2   force =     0.00256869    0.00141715   -0.00243128
     atom   44 type  2   force =     0.00035705   -0.00012866   -0.00071905
     atom   45 type  2   force =    -0.00021940   -0.00006278   -0.00095109
     atom   46 type  1   force =    -0.01909484    0.00042965   -0.00503567
     atom   47 type  2   force =    -0.00212512   -0.00144159    0.00110932
     atom   48 type  2   force =    -0.00084212   -0.00044718   -0.02807736
     atom   49 type  2   force =    -0.04854753    0.00065880    0.17940311
     atom   50 type  3   force =    -0.03194572    0.00177443   -0.03246346
     atom   51 type  3   force =     0.06360084   -0.00071184   -0.07692211

     Total force =     0.429762     Total SCF correction =     0.001370
 !ASE

     Writing output data file calc.save

     General routines

     Parallel routines

   This run was terminated on:   6: 0:40  10Mar2018

   JOB DONE.