     Program PWSCF v.5.1rc2 (svn rev. ) starts on 27Feb2018 at  4:12:45

     Current dimensions of program PWSCF are:
     Max number of different atomic species (ntypx) = 10
     Max number of k-points (npk) =  40000
     Max angular momentum in pseudopotentials (lmaxx) =  3

     IMPORTANT: XC functional enforced from input :
     Exchange-correlation      = BEEF ( 1  4 27 13 2)
     Any further DFT definition will be discarded
     Please, verify this is what you really want

     Subspace diagonalization in iterative solution of the eigenvalue problem:
     a serial algorithm will be used

     Generating pointlists ...
     new r_m :   0.4125 (alat units)  0.7795 (a.u.) for type    1
     new r_m :   0.4125 (alat units)  0.7795 (a.u.) for type    2
     new r_m :   0.4125 (alat units)  0.7795 (a.u.) for type    3
     new r_m :   0.4125 (alat units)  0.7795 (a.u.) for type    4

     bravais-lattice index     =            0
     lattice parameter (alat)  =       1.8897  a.u.
     unit-cell volume          =    7990.9933 (a.u.)^3
     number of atoms/cell      =           54
     number of atomic types    =            4
     number of electrons       =       398.00
     number of Kohn-Sham states=          299
     kinetic-energy cutoff     =      40.4243  Ry
     charge density cutoff     =     404.2426  Ry
     convergence threshold     =      7.3E-07
     mixing beta               =       0.1000
     number of iterations used =           10  plain     mixing
     Exchange-correlation      = BEEF ( 1  4 27 13 2)
     nstep                     =           50

     celldm(1)=   1.889726  celldm(2)=   0.000000  celldm(3)=   0.000000
     celldm(4)=   0.000000  celldm(5)=   0.000000  celldm(6)=   0.000000

     crystal axes: (cart. coord. in units of alat)
               a(1) = (   6.590708   0.000000   0.000000 )
               a(2) = (   0.000000   5.950229   0.000000 )
               a(3) = (   0.000000   0.000000  30.195235 )

     reciprocal axes: (cart. coord. in units 2 pi/alat)
               b(1) = (  0.151729  0.000000  0.000000 )
               b(2) = (  0.000000  0.168061  0.000000 )
               b(3) = (  0.000000  0.000000  0.033118 )

     PseudoPot. # 1 for Ti read from file:
     /home/alatimer/bin/psp/esp_psp_w_gbrvRu/Ti.UPF
     MD5 check sum: 8e4df49b7f0d34bbd5052bf3f5ea0213
     Pseudo is Ultrasoft, Zval = 12.0
     Generated by new atomic code, or converted to UPF format
     Using radial grid of  851 points,  6 beta functions with:
                l(1) =   0
                l(2) =   0
                l(3) =   1
                l(4) =   1
                l(5) =   2
                l(6) =   2
     Q(r) pseudized with  8 coefficients,  rinner =    1.000   1.000   1.000
                                                       1.000   1.000

     PseudoPot. # 2 for  O read from file:
     /home/alatimer/bin/psp/esp_psp_w_gbrvRu/O.UPF
     MD5 check sum: e057bbcf3229fb5d8c36c0c92f9568b4
     Pseudo is Ultrasoft + core correction, Zval =  6.0
     Generated using "atomic" code by A. Dal Corso  v.5.0.2 svn rev. 9415
     Using radial grid of 1095 points,  4 beta functions with:
                l(1) =   0
                l(2) =   0
                l(3) =   1
                l(4) =   1
     Q(r) pseudized with 0 coefficients

     PseudoPot. # 3 for  C read from file:
     /home/alatimer/bin/psp/esp_psp_w_gbrvRu/C.UPF
     MD5 check sum: ab446d787031eba755f1d5ee46644bb0
     Pseudo is Ultrasoft + core correction, Zval =  4.0
     Generated using "atomic" code by A. Dal Corso  v.5.0.2 svn rev. 9415
     Using radial grid of 1073 points,  4 beta functions with:
                l(1) =   0
                l(2) =   0
                l(3) =   1
                l(4) =   1
     Q(r) pseudized with 0 coefficients

     PseudoPot. # 4 for  H read from file:
     /home/alatimer/bin/psp/esp_psp_w_gbrvRu/H.UPF
     MD5 check sum: bd57da0722753ddfd9833a65b40bb853
     Pseudo is Ultrasoft, Zval =  1.0
     Generated using "atomic" code by A. Dal Corso  v.5.0.2 svn rev. 9415
     Using radial grid of  929 points,  2 beta functions with:
                l(1) =   0
                l(2) =   0
     Q(r) pseudized with 0 coefficients

     vdW kernel table read from file vdW_kernel_table
     MD5 check sum: 095c7af220d748ca6e76c0b4c6cfb241

     atomic species   valence    mass     pseudopotential
        Ti1           12.00    47.88000     Ti( 1.00)
        O1             6.00    15.99940      O( 1.00)
        C1             4.00    12.01100      C( 1.00)
        H1             1.00     1.00794      H( 1.00)

     Starting magnetic structure
     atomic species   magnetization
        Ti1          0.250
        O1           0.500
        C1           0.750
        H1           0.000

     No symmetry found

   Cartesian axes

     site n.     atom                  positions (alat units)
         1           Ti1 tau(   1) = (   1.6476770   0.7437786   2.6545865  )
         2           O1  tau(   2) = (   1.6476770   2.2313359   3.9361215  )
         3           Ti1 tau(   3) = (   1.6476770   2.2313359   5.9499405  )
         4           O1  tau(   4) = (   0.3661420   0.7437786   5.9499405  )
         5           Ti1 tau(   5) = (   1.6407309   0.9134410   9.3139491  )
         6           O1  tau(   6) = (   1.6648823   2.2608486  10.4895904  )
         7           Ti1 tau(   7) = (   1.7578240   2.2899216  13.0472362  )
         8           O1  tau(   8) = (   0.4801583   0.7600008  12.7739736  )
         9           Ti1 tau(   9) = (   1.6476770   3.7188931   2.6545865  )
        10           O1  tau(  10) = (   1.6476770   5.2064503   3.9361215  )
        11           Ti1 tau(  11) = (   1.6476770   5.2064503   5.9499405  )
        12           O1  tau(  12) = (   0.3661420   3.7188931   5.9499405  )
        13           Ti1 tau(  13) = (   1.6336050   3.7786827   9.1566831  )
        14           O1  tau(  14) = (   1.6678212   5.2513959  10.5409436  )
        15           Ti1 tau(  15) = (   1.7144009   5.2558216  12.3462911  )
        16           O1  tau(  16) = (   0.4635505   3.7986228  12.7318280  )
        17           O1  tau(  17) = (   1.6476770   2.2313359   1.3730516  )
        18           Ti1 tau(  18) = (   4.9430310   2.2313359   2.6545865  )
        19           O1  tau(  19) = (   4.9430310   2.2313359   4.6684056  )
        20           O1  tau(  20) = (   6.2245660   0.7437786   2.6545865  )
        21           O1  tau(  21) = (   3.6614961   0.7437786   2.6545865  )
        22           Ti1 tau(  22) = (   4.9430310   0.7437786   5.9499405  )
        23           O1  tau(  23) = (   1.6683653   2.2752577   7.9427336  )
        24           O1  tau(  24) = (   4.9430310   2.2313359   7.2314755  )
        25           O1  tau(  25) = (   2.9292120   0.7437786   5.9499405  )
        26           Ti1 tau(  26) = (   4.9404121   2.2664794   9.4552217  )
        27           O1  tau(  27) = (   5.0099888   2.2616732  11.2946145  )
        28           O1  tau(  28) = (   6.2612001   0.7714827   9.2659748  )
        29           O1  tau(  29) = (   3.6791272   0.7744986   9.2965846  )
        30           Ti1 tau(  30) = (   5.0117873   0.7976728  12.8161605  )
        31           O1  tau(  31) = (   4.9963122   2.2836652  13.8750618  )
        32           O1  tau(  32) = (   2.9819382   0.7448324  12.7109220  )
        33           O1  tau(  33) = (   1.6476770   5.2064503   1.3730516  )
        34           Ti1 tau(  34) = (   4.9430310   5.2064503   2.6545865  )
        35           O1  tau(  35) = (   4.9430310   5.2064503   4.6684056  )
        36           O1  tau(  36) = (   6.2245660   3.7188931   2.6545865  )
        37           O1  tau(  37) = (   3.6614961   3.7188931   2.6545865  )
        38           Ti1 tau(  38) = (   4.9430310   3.7188931   5.9499405  )
        39           O1  tau(  39) = (   1.6664207   5.2035600   7.9365221  )
        40           O1  tau(  40) = (   4.9430310   5.2064503   7.2314755  )
        41           O1  tau(  41) = (   2.9292120   3.7188931   5.9499405  )
        42           Ti1 tau(  42) = (   4.9524353   5.2460635   9.4426343  )
        43           O1  tau(  43) = (   5.0107556   5.2394944  11.2927493  )
        44           O1  tau(  44) = (   6.2663940   3.7551737   9.2646230  )
        45           O1  tau(  45) = (   3.6780957   3.7542261   9.2971476  )
        46           Ti1 tau(  46) = (   5.0587989   3.7766986  12.8010349  )
        47           O1  tau(  47) = (   5.0196089   5.2502198  13.8813978  )
        48           O1  tau(  48) = (   2.9624133   3.7943242  12.7299881  )
        49           O1  tau(  49) = (   1.7427453   2.2533568  14.8370015  )
        50           C1  tau(  50) = (   2.7196098   4.2826273  16.2318421  )
        51           H1  tau(  51) = (   3.3037454   4.9255546  15.5827400  )
        52           H1  tau(  52) = (   3.3286606   3.7870117  16.9822022  )
        53           H1  tau(  53) = (   2.3125587   3.4026405  15.5729816  )
        54           H1  tau(  54) = (   1.8391288   4.7650601  16.6748379  )

     number of k points=    40  Fermi-Dirac smearing, width (Ry)=  0.0073
                       cart. coord. in units 2pi/alat
        k(    1) = (   0.0000000   0.0000000   0.0000000), wk =   0.0277778
        k(    2) = (   0.0000000   0.0280101   0.0000000), wk =   0.0555556
        k(    3) = (   0.0000000   0.0560203   0.0000000), wk =   0.0555556
        k(    4) = (   0.0000000  -0.0840304   0.0000000), wk =   0.0277778
        k(    5) = (   0.0252881   0.0000000   0.0000000), wk =   0.0555556
        k(    6) = (   0.0252881   0.0280101   0.0000000), wk =   0.0555556
        k(    7) = (   0.0252881   0.0560203   0.0000000), wk =   0.0555556
        k(    8) = (   0.0252881  -0.0840304   0.0000000), wk =   0.0555556
        k(    9) = (   0.0505763   0.0000000   0.0000000), wk =   0.0555556
        k(   10) = (   0.0505763   0.0280101   0.0000000), wk =   0.0555556
        k(   11) = (   0.0505763   0.0560203   0.0000000), wk =   0.0555556
        k(   12) = (   0.0505763  -0.0840304   0.0000000), wk =   0.0555556
        k(   13) = (  -0.0758644   0.0000000   0.0000000), wk =   0.0277778
        k(   14) = (  -0.0758644   0.0280101   0.0000000), wk =   0.0555556
        k(   15) = (  -0.0758644   0.0560203   0.0000000), wk =   0.0555556
        k(   16) = (  -0.0758644  -0.0840304   0.0000000), wk =   0.0277778
        k(   17) = (  -0.0252881   0.0280101   0.0000000), wk =   0.0555556
        k(   18) = (  -0.0252881   0.0560203   0.0000000), wk =   0.0555556
        k(   19) = (  -0.0505763   0.0280101   0.0000000), wk =   0.0555556
        k(   20) = (  -0.0505763   0.0560203   0.0000000), wk =   0.0555556
        k(   21) = (   0.0000000   0.0000000   0.0000000), wk =   0.0277778
        k(   22) = (   0.0000000   0.0280101   0.0000000), wk =   0.0555556
        k(   23) = (   0.0000000   0.0560203   0.0000000), wk =   0.0555556
        k(   24) = (   0.0000000  -0.0840304   0.0000000), wk =   0.0277778
        k(   25) = (   0.0252881   0.0000000   0.0000000), wk =   0.0555556
        k(   26) = (   0.0252881   0.0280101   0.0000000), wk =   0.0555556
[...]
     atom:   44    charge:    2.0850    magn:    0.0008    constr:    0.0000
     atom:   45    charge:    2.0858    magn:    0.0004    constr:    0.0000
     atom:   46    charge:    3.1147    magn:   -0.0007    constr:    0.0000
     atom:   47    charge:    2.0805    magn:    0.0047    constr:    0.0000
     atom:   48    charge:    2.0836    magn:    0.0136    constr:    0.0000
     atom:   49    charge:    2.0516    magn:    0.2398    constr:    0.0000
     atom:   50    charge:    0.6707    magn:    0.0547    constr:    0.0000
     atom:   51    charge:    0.4219    magn:    0.0009    constr:    0.0000
     atom:   52    charge:    0.4229    magn:    0.0008    constr:    0.0000
     atom:   53    charge:    0.3674    magn:    0.0233    constr:    0.0000
     atom:   54    charge:    0.4161    magn:    0.0007    constr:    0.0000

     total energy              =   -3021.14946650 Ry
     Harris-Foulkes estimate   =   -3021.15008888 Ry
     estimated scf accuracy    <       0.00415066 Ry

     total magnetization       =     1.07 Bohr mag/cell
     absolute magnetization    =     1.24 Bohr mag/cell

[...]

     total energy              =   -3021.14969326 Ry
     Harris-Foulkes estimate   =   -3021.14969339 Ry
     estimated scf accuracy    <       0.00000122 Ry

[...]

     iteration # 10     ecut=    40.42 Ry     beta=0.10
     Davidson diagonalization with overlap
     ethr =  3.06E-10,  avg # of iterations =  3.7

     negative rho (up, down):  1.188E-02 1.195E-02

     Magnetic moment per site:
     atom:    1    charge:    3.1244    magn:   -0.0001    constr:    0.0000
     atom:    2    charge:    2.0897    magn:    0.0001    constr:    0.0000
     atom:    3    charge:    3.1198    magn:   -0.0000    constr:    0.0000
     atom:    4    charge:    2.0867    magn:   -0.0001    constr:    0.0000
     atom:    5    charge:    3.1161    magn:   -0.0003    constr:    0.0000
     atom:    6    charge:    2.0795    magn:    0.0022    constr:    0.0000
     atom:    7    charge:    3.1167    magn:   -0.0054    constr:    0.0000
     atom:    8    charge:    2.0792    magn:    0.0251    constr:    0.0000
     atom:    9    charge:    3.1244    magn:   -0.0001    constr:    0.0000
     atom:   10    charge:    2.0898    magn:    0.0001    constr:    0.0000
     atom:   11    charge:    3.1198    magn:   -0.0000    constr:    0.0000
     atom:   12    charge:    2.0871    magn:   -0.0000    constr:    0.0000
     atom:   13    charge:    3.1150    magn:   -0.0002    constr:    0.0000
     atom:   14    charge:    2.0939    magn:    0.0023    constr:    0.0000
     atom:   15    charge:    3.1184    magn:   -0.0008    constr:    0.0000
     atom:   16    charge:    2.0828    magn:    0.0047    constr:    0.0000
     atom:   17    charge:    2.0624    magn:    0.0008    constr:    0.0000
     atom:   18    charge:    3.1239    magn:   -0.0000    constr:    0.0000
     atom:   19    charge:    2.0876    magn:    0.0000    constr:    0.0000
     atom:   20    charge:    2.0847    magn:    0.0001    constr:    0.0000
     atom:   21    charge:    2.0847    magn:    0.0001    constr:    0.0000
     atom:   22    charge:    3.1199    magn:    0.0000    constr:    0.0000
     atom:   23    charge:    2.0908    magn:    0.0003    constr:    0.0000
     atom:   24    charge:    2.0754    magn:   -0.0000    constr:    0.0000
     atom:   25    charge:    2.0867    magn:    0.0000    constr:    0.0000
     atom:   26    charge:    3.1127    magn:   -0.0003    constr:    0.0000
     atom:   27    charge:    2.0802    magn:    0.0027    constr:    0.0000
     atom:   28    charge:    2.0839    magn:    0.0008    constr:    0.0000
     atom:   29    charge:    2.0860    magn:    0.0009    constr:    0.0000
     atom:   30    charge:    3.1171    magn:   -0.0008    constr:    0.0000
     atom:   31    charge:    2.0825    magn:    0.0006    constr:    0.0000
     atom:   32    charge:    2.0829    magn:    0.0066    constr:    0.0000
     atom:   33    charge:    2.0624    magn:    0.0008    constr:    0.0000
     atom:   34    charge:    3.1239    magn:   -0.0000    constr:    0.0000
     atom:   35    charge:    2.0876    magn:    0.0000    constr:    0.0000
     atom:   36    charge:    2.0847    magn:    0.0001    constr:    0.0000
     atom:   37    charge:    2.0847    magn:    0.0001    constr:    0.0000
     atom:   38    charge:    3.1200    magn:    0.0000    constr:    0.0000
     atom:   39    charge:    2.0839    magn:    0.0002    constr:    0.0000
     atom:   40    charge:    2.0756    magn:   -0.0001    constr:    0.0000
     atom:   41    charge:    2.0870    magn:   -0.0000    constr:    0.0000
     atom:   42    charge:    3.1151    magn:   -0.0003    constr:    0.0000
     atom:   43    charge:    2.0803    magn:    0.0033    constr:    0.0000
     atom:   44    charge:    2.0851    magn:    0.0010    constr:    0.0000
     atom:   45    charge:    2.0858    magn:    0.0006    constr:    0.0000
     atom:   46    charge:    3.1148    magn:   -0.0007    constr:    0.0000
     atom:   47    charge:    2.0806    magn:    0.0047    constr:    0.0000
     atom:   48    charge:    2.0837    magn:    0.0138    constr:    0.0000
     atom:   49    charge:    2.0516    magn:    0.2402    constr:    0.0000
     atom:   50    charge:    0.6697    magn:    0.0544    constr:    0.0000
     atom:   51    charge:    0.4217    magn:    0.0011    constr:    0.0000
     atom:   52    charge:    0.4230    magn:    0.0008    constr:    0.0000
     atom:   53    charge:    0.3676    magn:    0.0230    constr:    0.0000
     atom:   54    charge:    0.4163    magn:    0.0005    constr:    0.0000

     End of self-consistent calculation

 ------ SPIN UP ------------

          k = 0.0000 0.0000 0.0000 ( 34665 PWs)   bands (ev):

   -58.3072 -58.2722 -57.3893 -57.3836 -57.3505 -57.3129 -57.2615 -57.0927
   -57.0660 -57.0604 -57.0220 -56.9233 -56.8981 -56.8881 -56.8025 -56.7641
   -34.7524 -34.5758 -34.5470 -34.5138 -34.4188 -34.3619 -33.8843 -33.8719
   -33.7539 -33.6808 -33.6388 -33.5960 -33.5637 -33.5568 -33.5509 -33.5443
   -33.5327 -33.5179 -33.4925 -33.4910 -33.4766 -33.4748 -33.4722 -33.4532
   -33.3427 -33.3374 -33.3332 -33.3306 -33.3178 -33.2896 -33.2841 -33.2641
   -33.2438 -33.2385 -33.2381 -33.2288 -33.1995 -33.1782 -33.1430 -33.1419
   -33.1036 -33.0805 -33.0520 -33.0305 -33.0171 -32.9914 -32.9503 -32.8837
   -18.4725 -18.0398 -17.8155 -17.7149 -17.5546 -17.5329 -17.4891 -17.3873
   -17.3606 -17.2604 -17.0485 -17.0278 -17.0200 -16.9890 -16.9283 -16.8578
   -16.8386 -16.8012 -16.7434 -16.7114 -16.6926 -16.6602 -16.5960 -16.5919
   -16.4691 -16.4214 -16.4023 -16.3651 -16.3288 -16.1491 -16.0881 -15.6027
   -15.5418 -11.1588  -6.0510  -5.5000  -5.2858  -5.2059  -5.0971  -4.9952
    -4.9850  -4.9240  -4.8817  -4.7359  -4.6531  -4.6027  -4.5887  -4.5134
    -4.4322  -4.4169  -4.3556  -4.3195  -4.2364  -4.2220  -4.1997  -4.1452
    -4.0342  -4.0272  -3.9829  -3.9114  -3.8953  -3.8892  -3.8865  -3.8302
    -3.7798  -3.7552  -3.6879  -3.6349  -3.6015  -3.5773  -3.5449  -3.5309
    -3.5195  -3.4215  -3.4106  -3.3630  -3.2759  -3.2357  -3.1911  -3.0899
    -2.9247  -2.8999  -2.8540  -2.8061  -2.7488  -2.6968  -2.6751  -2.6646
    -2.6365  -2.5396  -2.4908  -2.4418  -2.3807  -2.3359  -2.2512  -2.2321
    -2.2279  -2.1630  -2.0719  -2.0441  -2.0021  -1.9623  -1.9326  -1.9017
    -1.8566  -1.7402  -1.6967  -1.6711  -1.6435  -1.6333  -1.5891  -1.5071
    -1.4236  -1.3699  -1.3556  -1.3407  -1.3171  -1.2710  -1.2270  -1.1732
    -1.1628  -1.1133  -1.1111  -1.0973  -1.0664  -0.9829  -0.8761  -0.8363
    -0.8112  -0.6960  -0.6898  -0.6269  -0.5550  -0.5137  -0.4860  -0.1894
     1.0236   1.1204   1.4153   1.6935   1.8017   1.9198   1.9671   2.0138
     2.0440   2.1312   2.2079   2.2285   2.2747   2.3935   2.4688   2.4826
     2.4897   2.5168   2.6195   2.6649   2.6697   2.6862   2.7085   2.8253
     2.8401   2.8847   2.8990   2.9519   2.9667   3.0196   3.0283   3.0498
     3.1036   3.1589   3.1972   3.1984   3.2459   3.2539   3.4096   3.4445
     3.4765   3.5188   3.5959   3.6246   3.6685   3.7126   3.8270   3.9543
     4.1022   4.1340   4.3247   4.4711   4.5926   4.7049   4.7827   4.8334
     5.0835   5.1310   5.2086   5.3519   5.3960   5.4016   5.4245   5.4312
     5.4460   5.5207   5.5529   5.6605   5.7168   5.7341   5.9044   5.9192
     5.9541   6.0734   6.0923   6.1345   6.2165   6.2938   6.4206   6.4879
     6.5409   6.5658   6.7810   6.8124   7.2136   7.9132   8.1534   8.1749
     8.3410   8.3883   8.6411   8.7140   8.7511   8.9676   9.1479   9.2440
     9.2965   9.4470   9.6212

[...]

          k =-0.0759 0.0000 0.0000 ( 34758 PWs)   bands (ev):

[...]

 ------ SPIN DOWN ----------

[...]

          k = 0.0506-0.0840 0.0000 ( 34628 PWs)   bands (ev):

[...]

          k =-0.0506 0.0560 0.0000 ( 34596 PWs)   bands (ev):

   -58.2987 -58.2811 -57.3836 -57.3773 -57.3592 -57.3163 -57.2612 -57.0960
   -57.0675 -57.0557 -57.0302 -56.9234 -56.9154 -56.8977 -56.7969 -56.7770
   -34.6582 -34.5688 -34.5543 -34.4886 -34.4626 -34.4424 -33.7895 -33.7838
   -33.6834 -33.6359 -33.6157 -33.5915 -33.5899 -33.5871 -33.5703 -33.5691
   -33.5460 -33.5331 -33.5315 -33.4978 -33.4937 -33.4672 -33.4449 -33.4174
   -33.3733 -33.3258 -33.3114 -33.3088 -33.2876 -33.2777 -33.2604 -33.2588
   -33.2577 -33.2486 -33.2449 -33.2421 -33.2228 -33.2167 -33.1824 -33.1592
   -33.1205 -33.0775 -33.0756 -33.0523 -33.0414 -33.0242 -33.0115 -32.9855
   -18.1094 -17.8204 -17.7030 -17.6150 -17.5988 -17.5590 -17.3819 -17.3705
   -17.2203 -17.2078 -17.1188 -17.0966 -16.9791 -16.9136 -16.8691 -16.8439
   -16.8251 -16.8091 -16.7632 -16.7373 -16.7224 -16.6290 -16.5983 -16.5080
   -16.4976 -16.4395 -16.4223 -16.4122 -16.2168 -16.1984 -15.8804 -15.6395
   -15.6176 -10.7628  -5.3033  -4.9934  -4.9427  -4.9347  -4.7847  -4.7770
    -4.7181  -4.6411  -4.5281  -4.5081  -4.5023  -4.4194  -4.4050  -4.3823
    -4.3627  -4.3290  -4.3108  -4.2495  -4.2018  -4.1776  -4.1677  -4.1150
    -4.1039  -4.0595  -4.0463  -3.9953  -3.9812  -3.9051  -3.8868  -3.8295
    -3.7811  -3.7153  -3.6832  -3.6133  -3.5652  -3.5293  -3.4849  -3.4353
    -3.3973  -3.3216  -3.2629  -3.2324  -3.1349  -3.1314  -3.0816  -3.0544
    -2.9969  -2.9791  -2.9594  -2.9054  -2.8021  -2.7651  -2.7506  -2.7074
    -2.6311  -2.5887  -2.5473  -2.5047  -2.4797  -2.4157  -2.3908  -2.3710
    -2.3526  -2.2913  -2.1964  -2.1737  -2.1486  -2.1301  -2.1037  -2.0493
    -2.0144  -1.9727  -1.9457  -1.8720  -1.8496  -1.7831  -1.7325  -1.6582
    -1.5675  -1.5504  -1.5398  -1.4976  -1.4443  -1.3864  -1.3542  -1.3073
    -1.2457  -1.1765  -1.0784  -1.0230  -0.9896  -0.9045  -0.8537  -0.8463
    -0.7945  -0.7078  -0.6934  -0.6722  -0.6571  -0.5543  -0.4767   0.2994
     1.3071   1.4968   1.6455   1.6672   1.8519   2.0030   2.0315   2.0667
     2.2425   2.2553   2.3595   2.3757   2.4320   2.4607   2.5473   2.5844
     2.6496   2.6948   2.7288   2.7434   2.8106   2.8417   2.8702   2.9025
     2.9332   2.9502   3.0058   3.0409   3.0716   3.1127   3.1442   3.1899
     3.1949   3.2498   3.2839   3.3239   3.3331   3.3761   3.4156   3.4663
     3.4807   3.5483   3.5774   3.6403   3.6669   3.7441   3.8038   3.8396
     3.8826   3.9593   4.1518   4.5032   4.5957   4.6153   4.7537   4.8212
     4.8878   4.9642   5.0095   5.1858   5.3011   5.3752   5.4109   5.4431
     5.5939   5.6156   5.6672   5.7162   5.8786   5.8960   5.9866   6.0055
     6.0675   6.1078   6.1695   6.2069   6.3131   6.3359   6.4115   6.4226
     6.5401   6.6142   6.7630   6.8071   7.1886   7.3575   7.5081   7.6187
     7.9312   8.0163   8.1011   8.3772   8.6048   8.7167   8.8042   9.0380
     9.1922   9.3276   9.4338

     the Fermi energy is    -0.2921 ev

!    total energy              =   -3021.14969330 Ry
     Harris-Foulkes estimate   =   -3021.14969343 Ry
     estimated scf accuracy    <       0.00000042 Ry

     The total energy is the sum of the following terms:

     one-electron contribution =  -40436.74305399 Ry
     hartree contribution      =   20289.72079504 Ry
     xc contribution           =    -553.20020661 Ry
     ewald contribution        =   17679.09258292 Ry
     smearing contrib. (-TS)   =      -0.01981065 Ry

     total magnetization       =     1.06 Bohr mag/cell
     absolute magnetization    =     1.23 Bohr mag/cell

     convergence has been achieved in  10 iterations

     Forces acting on atoms (Ry/au):

     negative rho (up, down):  1.188E-02 1.195E-02
     atom    1 type  1   force =     0.00018689   -0.00089916   -0.10469429
     atom    2 type  2   force =     0.00014463    0.00068177    0.04003395
     atom    3 type  1   force =     0.00075060   -0.00175212   -0.02053860
     atom    4 type  2   force =    -0.00326678    0.00312290   -0.00323301
     atom    5 type  1   force =     0.00034788    0.00007146    0.00033550
     atom    6 type  2   force =    -0.00012907   -0.00010078    0.00023867
     atom    7 type  1   force =    -0.00029121   -0.00001355   -0.00040266
     atom    8 type  2   force =    -0.00014765   -0.00013471   -0.00021182
     atom    9 type  1   force =    -0.00003224    0.00056611   -0.10482757
     atom   10 type  2   force =     0.00034975   -0.00021291    0.03600779
     atom   11 type  1   force =     0.00068132    0.00183653    0.00261955
     atom   12 type  2   force =    -0.00519579   -0.00266954   -0.00519634
     atom   13 type  1   force =     0.00041513    0.00008313   -0.00024109
     atom   14 type  2   force =     0.00013588   -0.00008345   -0.00004619
     atom   15 type  1   force =    -0.00011909   -0.00004280    0.00009621
     atom   16 type  2   force =    -0.00019837   -0.00000182   -0.00038265
     atom   17 type  2   force =     0.00001178   -0.00001406    0.06657766
     atom   18 type  1   force =     0.00005997    0.00003005    0.13146745
     atom   19 type  2   force =     0.00017955   -0.00052894   -0.08521204
     atom   20 type  2   force =    -0.05792633    0.00014089   -0.03608056
     atom   21 type  2   force =     0.05782064   -0.00004962   -0.03604123
     atom   22 type  1   force =    -0.00042823    0.00074917    0.08017428
     atom   23 type  2   force =     0.00019986   -0.00004914    0.00004101
     atom   24 type  2   force =     0.00064264    0.00185798   -0.03466805
     atom   25 type  2   force =     0.00414189    0.00332621   -0.00510333
     atom   26 type  1   force =     0.00040932   -0.00004706    0.00009446
     atom   27 type  2   force =    -0.00010131   -0.00012490    0.00004530
     atom   28 type  2   force =     0.00005778   -0.00019584   -0.00001386
     atom   29 type  2   force =    -0.00000060   -0.00007502    0.00007961
     atom   30 type  1   force =    -0.00023277   -0.00014251    0.00012834
     atom   31 type  2   force =     0.00010688   -0.00007660   -0.00010208
     atom   32 type  2   force =    -0.00011220   -0.00000607    0.00008038
     atom   33 type  2   force =    -0.00016520    0.00004772    0.06630962
     atom   34 type  1   force =     0.00007833   -0.00003367    0.13124706
     atom   35 type  2   force =     0.00018953   -0.00012987   -0.08482158
     atom   36 type  2   force =    -0.05782074    0.00006437   -0.03569358
     atom   37 type  2   force =     0.05799310   -0.00017620   -0.03609016
     atom   38 type  1   force =    -0.00037370   -0.00020497    0.07984507
     atom   39 type  2   force =     0.00007891   -0.00026290   -0.00008443
     atom   40 type  2   force =     0.00049037    0.00124026   -0.03527258
     atom   41 type  2   force =     0.00589074   -0.00243502   -0.00722746
     atom   42 type  1   force =     0.00024403   -0.00006992    0.00003364
     atom   43 type  2   force =    -0.00019490   -0.00009776    0.00004818
     atom   44 type  2   force =     0.00000848   -0.00015883   -0.00002459
     atom   45 type  2   force =     0.00000307   -0.00016798    0.00006368
     atom   46 type  1   force =    -0.00011014   -0.00010603    0.00007478
     atom   47 type  2   force =    -0.00010735   -0.00015790    0.00006894
     atom   48 type  2   force =    -0.00011825   -0.00002523    0.00036320
     atom   49 type  2   force =    -0.00059289   -0.00080033   -0.00040811
     atom   50 type  3   force =    -0.01117240    0.00393708    0.00980223
     atom   51 type  4   force =    -0.00223526    0.00049592    0.00014534
     atom   52 type  4   force =     0.00132803   -0.00114129   -0.00099445
     atom   53 type  4   force =    -0.00176082    0.00049137    0.00134475
     atom   54 type  4   force =     0.00988627   -0.00555444   -0.00975436

     Total force =     0.342983     Total SCF correction =     0.000981
 !ASE

     Writing output data file calc.save

     General routines

     Parallel routines

   This run was terminated on:   5: 7: 7  27Feb2018

   JOB DONE.