     Program PWSCF v.5.1rc2 (svn rev. ) starts on 10Feb2018 at 18: 4:15

     Current dimensions of program PWSCF are:
     Max number of different atomic species (ntypx) = 10
     Max number of k-points (npk) =  40000
     Max angular momentum in pseudopotentials (lmaxx) =  3

     IMPORTANT: XC functional enforced from input :
     Exchange-correlation      = BEEF ( 1  4 27 13 2)
     Any further DFT definition will be discarded
     Please, verify this is what you really want

     Subspace diagonalization in iterative solution of the eigenvalue problem:
     a serial algorithm will be used

     Generating pointlists ...
     new r_m :   0.4125 (alat units)  0.7795 (a.u.) for type    1
     new r_m :   0.3887 (alat units)  0.7345 (a.u.) for type    2
     new r_m :   0.3887 (alat units)  0.7345 (a.u.) for type    3

     bravais-lattice index     =            0
     lattice parameter (alat)  =       1.8897  a.u.
     unit-cell volume          =    7990.9933 (a.u.)^3
     number of atoms/cell      =           50
     number of atomic types    =            3
     number of electrons       =       391.00
     number of Kohn-Sham states=          295
     kinetic-energy cutoff     =      40.4243  Ry
     charge density cutoff     =     404.2426  Ry
     convergence threshold     =      7.3E-07
     mixing beta               =       0.1000
     number of iterations used =           10  plain     mixing
     Exchange-correlation      = BEEF ( 1  4 27 13 2)
     nstep                     =           50

     celldm(1)=   1.889726  celldm(2)=   0.000000  celldm(3)=   0.000000
     celldm(4)=   0.000000  celldm(5)=   0.000000  celldm(6)=   0.000000

     crystal axes: (cart. coord. in units of alat)
               a(1) = (   6.590708   0.000000   0.000000 )
               a(2) = (   0.000000   5.950229   0.000000 )
               a(3) = (   0.000000   0.000000  30.195235 )

     reciprocal axes: (cart. coord. in units 2 pi/alat)
               b(1) = (  0.151729  0.000000  0.000000 )
               b(2) = (  0.000000  0.168061  0.000000 )
               b(3) = (  0.000000  0.000000  0.033118 )

     PseudoPot. # 1 for Ti read from file:
     /home/alatimer/bin/psp/esp_psp_w_gbrvRu/Ti.UPF
     MD5 check sum: 8e4df49b7f0d34bbd5052bf3f5ea0213
     Pseudo is Ultrasoft, Zval = 12.0
     Generated by new atomic code, or converted to UPF format
     Using radial grid of  851 points,  6 beta functions with:
                l(1) =   0
                l(2) =   0
                l(3) =   1
                l(4) =   1
                l(5) =   2
                l(6) =   2
     Q(r) pseudized with  8 coefficients,  rinner =    1.000   1.000   1.000
                                                       1.000   1.000

     PseudoPot. # 2 for  O read from file:
     /home/alatimer/bin/psp/esp_psp_w_gbrvRu/O.UPF
     MD5 check sum: e057bbcf3229fb5d8c36c0c92f9568b4
     Pseudo is Ultrasoft + core correction, Zval =  6.0
     Generated using "atomic" code by A. Dal Corso  v.5.0.2 svn rev. 9415
     Using radial grid of 1095 points,  4 beta functions with:
                l(1) =   0
                l(2) =   0
                l(3) =   1
                l(4) =   1
     Q(r) pseudized with 0 coefficients

     PseudoPot. # 3 for  H read from file:
     /home/alatimer/bin/psp/esp_psp_w_gbrvRu/H.UPF
     MD5 check sum: bd57da0722753ddfd9833a65b40bb853
     Pseudo is Ultrasoft, Zval =  1.0
     Generated using "atomic" code by A. Dal Corso  v.5.0.2 svn rev. 9415
     Using radial grid of  929 points,  2 beta functions with:
                l(1) =   0
                l(2) =   0
     Q(r) pseudized with 0 coefficients

     vdW kernel table read from file vdW_kernel_table
     MD5 check sum: 095c7af220d748ca6e76c0b4c6cfb241

     atomic species   valence    mass     pseudopotential
        Ti1           12.00    47.88000     Ti( 1.00)
        O1             6.00    15.99940      O( 1.00)
        H1             1.00     1.00794      H( 1.00)

     Starting magnetic structure
     atomic species   magnetization
        Ti1          0.250
        O1           0.500
        H1           0.000

      2 Sym. Ops. (no inversion) found ( 1 have fractional translation)

   Cartesian axes

     site n.     atom                  positions (alat units)
         1           Ti1 tau(   1) = (   1.6476770   0.7437786   2.6545865  )
         2           O1  tau(   2) = (   1.6476770   2.2313359   3.9361215  )
         3           Ti1 tau(   3) = (   1.6476770   2.2313359   5.9499405  )
         4           O1  tau(   4) = (   0.3661420   0.7437786   5.9499405  )
         5           Ti1 tau(   5) = (   1.6423058   0.7993178   9.2289010  )
         6           O1  tau(   6) = (   1.6406404   2.2313359  10.4535548  )
         7           Ti1 tau(   7) = (   1.6373334   2.2313359  13.0586656  )
         8           O1  tau(   8) = (   0.3716334   0.7231912  12.7369480  )
         9           Ti1 tau(   9) = (   1.6476770   3.7188931   2.6545865  )
        10           O1  tau(  10) = (   1.6476770   5.2064503   3.9361215  )
        11           Ti1 tau(  11) = (   1.6476770   5.2064503   5.9499405  )
        12           O1  tau(  12) = (   0.3661420   3.7188931   5.9499405  )
        13           Ti1 tau(  13) = (   1.6423059   3.6633529   9.2289023  )
        14           O1  tau(  14) = (   1.6396028   5.2064504  10.5374954  )
        15           Ti1 tau(  15) = (   1.6366369   5.2064504  12.3426698  )
        16           O1  tau(  16) = (   0.3716333   3.7394800  12.7369475  )
        17           O1  tau(  17) = (   1.6476770   2.2313359   1.3730516  )
        18           Ti1 tau(  18) = (   4.9430310   2.2313359   2.6545865  )
        19           O1  tau(  19) = (   4.9430310   2.2313359   4.6684056  )
        20           O1  tau(  20) = (   6.2245660   0.7437786   2.6545865  )
        21           O1  tau(  21) = (   3.6614961   0.7437786   2.6545865  )
        22           Ti1 tau(  22) = (   4.9430310   0.7437786   5.9499405  )
        23           O1  tau(  23) = (   1.6444126   2.2313359   7.9291264  )
        24           O1  tau(  24) = (   4.9430310   2.2313359   7.2314755  )
        25           O1  tau(  25) = (   2.9292120   0.7437786   5.9499405  )
        26           Ti1 tau(  26) = (   4.9374203   2.2313360   9.4425711  )
        27           O1  tau(  27) = (   4.9384755   2.2313359  11.2756104  )
        28           O1  tau(  28) = (   6.2333856   0.7395591   9.2701299  )
        29           O1  tau(  29) = (   3.6424277   0.7403199   9.2676498  )
        30           Ti1 tau(  30) = (   4.9388558   0.7382018  12.7898683  )
        31           O1  tau(  31) = (   4.8884434   2.2313358  13.8602379  )
        32           O1  tau(  32) = (   2.8718067   0.7224686  12.6922084  )
        33           O1  tau(  33) = (   1.6476770   5.2064503   1.3730516  )
        34           Ti1 tau(  34) = (   4.9430310   5.2064503   2.6545865  )
        35           O1  tau(  35) = (   4.9430310   5.2064503   4.6684056  )
        36           O1  tau(  36) = (   6.2245660   3.7188931   2.6545865  )
        37           O1  tau(  37) = (   3.6614961   3.7188931   2.6545865  )
        38           Ti1 tau(  38) = (   4.9430310   3.7188931   5.9499405  )
        39           O1  tau(  39) = (   1.6444418   5.2064506   7.9393866  )
        40           O1  tau(  40) = (   4.9430310   5.2064503   7.2314755  )
        41           O1  tau(  41) = (   2.9292120   3.7188931   5.9499405  )
        42           Ti1 tau(  42) = (   4.9387790   5.2064503   9.4241858  )
        43           O1  tau(  43) = (   4.9379278   5.2064504  11.2756977  )
        44           O1  tau(  44) = (   6.2333855   3.7231127   9.2701299  )
        45           O1  tau(  45) = (   3.6424278   3.7223520   9.2676499  )
        46           Ti1 tau(  46) = (   4.9388558   3.7244696  12.7898683  )
        47           O1  tau(  47) = (   4.8902929   5.2064502  13.8618696  )
        48           O1  tau(  48) = (   2.8718066   3.7402036  12.6922086  )
        49           O1  tau(  49) = (   1.7918258   2.2313358  14.8494317  )
        50           H1  tau(  50) = (   2.6007197   2.2313366  15.3328018  )

     number of k points=    32  Fermi-Dirac smearing, width (Ry)=  0.0073
                       cart. coord. in units 2pi/alat
        k(    1) = (   0.0000000   0.0000000   0.0000000), wk =   0.0277778
        k(    2) = (   0.0000000   0.0280101   0.0000000), wk =   0.0555556
        k(    3) = (   0.0000000   0.0560203   0.0000000), wk =   0.0555556
        k(    4) = (   0.0000000  -0.0840304   0.0000000), wk =   0.0277778
        k(    5) = (   0.0252881   0.0000000   0.0000000), wk =   0.0555556
        k(    6) = (   0.0252881   0.0280101   0.0000000), wk =   0.1111111
        k(    7) = (   0.0252881   0.0560203   0.0000000), wk =   0.1111111
        k(    8) = (   0.0252881  -0.0840304   0.0000000), wk =   0.0555556
        k(    9) = (   0.0505763   0.0000000   0.0000000), wk =   0.0555556
        k(   10) = (   0.0505763   0.0280101   0.0000000), wk =   0.1111111
        k(   11) = (   0.0505763   0.0560203   0.0000000), wk =   0.1111111
        k(   12) = (   0.0505763  -0.0840304   0.0000000), wk =   0.0555556
        k(   13) = (  -0.0758644   0.0000000   0.0000000), wk =   0.0277778
        k(   14) = (  -0.0758644   0.0280101   0.0000000), wk =   0.0555556
        k(   15) = (  -0.0758644   0.0560203   0.0000000), wk =   0.0555556
        k(   16) = (  -0.0758644  -0.0840304   0.0000000), wk =   0.0277778
        k(   17) = (   0.0000000   0.0000000   0.0000000), wk =   0.0277778
        k(   18) = (   0.0000000   0.0280101   0.0000000), wk =   0.0555556
        k(   19) = (   0.0000000   0.0560203   0.0000000), wk =   0.0555556
        k(   20) = (   0.0000000  -0.0840304   0.0000000), wk =   0.0277778
        k(   21) = (   0.0252881   0.0000000   0.0000000), wk =   0.0555556
        k(   22) = (   0.0252881   0.0280101   0.0000000), wk =   0.1111111
        k(   23) = (   0.0252881   0.0560203   0.0000000), wk =   0.1111111
        k(   24) = (   0.0252881  -0.0840304   0.0000000), wk =   0.0555556
        k(   25) = (   0.0505763   0.0000000   0.0000000), wk =   0.0555556
        k(   26) = (   0.0505763   0.0280101   0.0000000), wk =   0.1111111
        k(   27) = (   0.0505763   0.0560203   0.0000000), wk =   0.1111111
        k(   28) = (   0.0505763  -0.0840304   0.0000000), wk =   0.0555556
        k(   29) = (  -0.0758644   0.0000000   0.0000000), wk =   0.0277778
        k(   30) = (  -0.0758644   0.0280101   0.0000000), wk =   0.0555556
        k(   31) = (  -0.0758644   0.0560203   0.0000000), wk =   0.0555556
        k(   32) = (  -0.0758644  -0.0840304   0.0000000), wk =   0.0277778

     Largest allocated arrays     est. size (Mb)     dimensions
     Largest temporary arrays     est. size (Mb)     dimensions

     Check: negative/imaginary core charge=   -0.000049    0.000000

     The initial density is read from file :
     ./calc.save/charge-density.dat

     negative rho (up, down):  1.350E-02 1.350E-02

     *
     * You are using vdW-DF for exchange-correlation in this calculation.
[...]
     atom:   33    charge:    1.8106    magn:    0.0010    constr:    0.0000
     atom:   34    charge:    3.1239    magn:    0.0000    constr:    0.0000
     atom:   35    charge:    1.8314    magn:    0.0000    constr:    0.0000
     atom:   36    charge:    1.8344    magn:    0.0000    constr:    0.0000
     atom:   37    charge:    1.8344    magn:    0.0000    constr:    0.0000
     atom:   38    charge:    3.1199    magn:    0.0000    constr:    0.0000
     atom:   39    charge:    1.8329    magn:   -0.0001    constr:    0.0000
     atom:   40    charge:    1.8262    magn:   -0.0002    constr:    0.0000
     atom:   41    charge:    1.8361    magn:   -0.0000    constr:    0.0000
     atom:   42    charge:    3.1217    magn:    0.0001    constr:    0.0000
     atom:   43    charge:    1.8288    magn:   -0.0002    constr:    0.0000
     atom:   44    charge:    1.8338    magn:   -0.0002    constr:    0.0000
     atom:   45    charge:    1.8331    magn:   -0.0002    constr:    0.0000
     atom:   46    charge:    3.1193    magn:    0.0000    constr:    0.0000
     atom:   47    charge:    1.8318    magn:   -0.0001    constr:    0.0000
     atom:   48    charge:    1.8345    magn:   -0.0001    constr:    0.0000
     atom:   49    charge:    1.8378    magn:    0.0000    constr:    0.0000
     atom:   50    charge:    0.3756    magn:   -0.0000    constr:    0.0000

     total energy              =   -3005.55771848 Ry
     Harris-Foulkes estimate   =   -3005.57204017 Ry
     estimated scf accuracy    <       0.09444012 Ry

     total magnetization       =     0.00 Bohr mag/cell
     absolute magnetization    =     0.01 Bohr mag/cell

     iteration #  2     ecut=    40.42 Ry     beta=0.10
     Davidson diagonalization with overlap
     ethr =  2.42E-05,  avg # of iterations =  2.0

[...]

     total energy              =   -3005.52859078 Ry
     Harris-Foulkes estimate   =   -3005.52859072 Ry
     estimated scf accuracy    <       0.00000314 Ry

[...]

     iteration # 12     ecut=    40.42 Ry     beta=0.10
     Davidson diagonalization with overlap
     ethr =  8.03E-10,  avg # of iterations =  2.0

     negative rho (up, down):  1.351E-02 1.351E-02

     Magnetic moment per site:
     atom:    1    charge:    3.1244    magn:   -0.0001    constr:    0.0000
     atom:    2    charge:    1.8358    magn:    0.0001    constr:    0.0000
     atom:    3    charge:    3.1200    magn:   -0.0000    constr:    0.0000
     atom:    4    charge:    1.8361    magn:    0.0000    constr:    0.0000
     atom:    5    charge:    3.1144    magn:    0.0000    constr:    0.0000
     atom:    6    charge:    1.8295    magn:   -0.0000    constr:    0.0000
     atom:    7    charge:    3.1160    magn:    0.0000    constr:    0.0000
     atom:    8    charge:    1.8334    magn:   -0.0000    constr:    0.0000
     atom:    9    charge:    3.1244    magn:   -0.0001    constr:    0.0000
     atom:   10    charge:    1.8359    magn:    0.0001    constr:    0.0000
     atom:   11    charge:    3.1198    magn:   -0.0000    constr:    0.0000
     atom:   12    charge:    1.8361    magn:    0.0000    constr:    0.0000
     atom:   13    charge:    3.1144    magn:    0.0000    constr:    0.0000
     atom:   14    charge:    1.8423    magn:   -0.0000    constr:    0.0000
     atom:   15    charge:    3.1165    magn:    0.0000    constr:    0.0000
     atom:   16    charge:    1.8334    magn:   -0.0000    constr:    0.0000
     atom:   17    charge:    1.8104    magn:    0.0004    constr:    0.0000
     atom:   18    charge:    3.1239    magn:   -0.0000    constr:    0.0000
     atom:   19    charge:    1.8314    magn:    0.0000    constr:    0.0000
     atom:   20    charge:    1.8344    magn:    0.0000    constr:    0.0000
     atom:   21    charge:    1.8344    magn:    0.0000    constr:    0.0000
     atom:   22    charge:    3.1199    magn:    0.0000    constr:    0.0000
     atom:   23    charge:    1.8399    magn:   -0.0000    constr:    0.0000
     atom:   24    charge:    1.8258    magn:   -0.0000    constr:    0.0000
     atom:   25    charge:    1.8361    magn:    0.0000    constr:    0.0000
     atom:   26    charge:    3.1143    magn:    0.0000    constr:    0.0000
     atom:   27    charge:    1.8290    magn:   -0.0001    constr:    0.0000
     atom:   28    charge:    1.8338    magn:   -0.0000    constr:    0.0000
     atom:   29    charge:    1.8331    magn:   -0.0000    constr:    0.0000
     atom:   30    charge:    3.1193    magn:    0.0000    constr:    0.0000
     atom:   31    charge:    1.8319    magn:   -0.0000    constr:    0.0000
     atom:   32    charge:    1.8338    magn:   -0.0000    constr:    0.0000
     atom:   33    charge:    1.8104    magn:    0.0004    constr:    0.0000
     atom:   34    charge:    3.1239    magn:   -0.0000    constr:    0.0000
     atom:   35    charge:    1.8314    magn:    0.0000    constr:    0.0000
     atom:   36    charge:    1.8344    magn:    0.0000    constr:    0.0000
     atom:   37    charge:    1.8344    magn:    0.0000    constr:    0.0000
     atom:   38    charge:    3.1199    magn:    0.0000    constr:    0.0000
     atom:   39    charge:    1.8329    magn:   -0.0000    constr:    0.0000
     atom:   40    charge:    1.8262    magn:   -0.0000    constr:    0.0000
     atom:   41    charge:    1.8361    magn:    0.0000    constr:    0.0000
     atom:   42    charge:    3.1217    magn:    0.0000    constr:    0.0000
     atom:   43    charge:    1.8288    magn:   -0.0000    constr:    0.0000
     atom:   44    charge:    1.8338    magn:   -0.0000    constr:    0.0000
     atom:   45    charge:    1.8331    magn:   -0.0000    constr:    0.0000
     atom:   46    charge:    3.1193    magn:    0.0000    constr:    0.0000
     atom:   47    charge:    1.8318    magn:   -0.0000    constr:    0.0000
     atom:   48    charge:    1.8338    magn:   -0.0000    constr:    0.0000
     atom:   49    charge:    1.8488    magn:   -0.0000    constr:    0.0000
     atom:   50    charge:    0.3938    magn:   -0.0000    constr:    0.0000

     End of self-consistent calculation

 ------ SPIN UP ------------

          k = 0.0000 0.0000 0.0000 ( 34665 PWs)   bands (ev):

   -58.5116 -58.4766 -57.6008 -57.5714 -57.5650 -57.4887 -57.4766 -57.4370
   -57.3508 -57.3114 -57.2698 -57.2342 -57.1244 -57.0891 -57.0188 -56.9809
   -34.9565 -34.7806 -34.7518 -34.7179 -34.6229 -34.5661 -34.1000 -34.0559
   -34.0191 -33.8747 -33.8537 -33.7960 -33.7742 -33.7681 -33.7587 -33.7499
   -33.7457 -33.7351 -33.7067 -33.7008 -33.6990 -33.6785 -33.6683 -33.6638
   -33.6590 -33.6561 -33.6416 -33.6071 -33.5580 -33.5523 -33.5431 -33.5109
   -33.5026 -33.4953 -33.4653 -33.4516 -33.4397 -33.4390 -33.4280 -33.3908
   -33.3428 -33.2961 -33.2530 -33.2524 -33.2325 -33.2078 -33.1513 -33.0997
   -18.6753 -18.3805 -18.2492 -18.0178 -17.9171 -17.7499 -17.7351 -17.6377
   -17.5973 -17.5747 -17.4626 -17.2674 -17.2247 -17.2181 -17.1552 -17.0558
   -17.0349 -17.0137 -16.9456 -16.9043 -16.8577 -16.8230 -16.8134 -16.7898
   -16.6960 -16.6343 -16.6195 -16.5194 -16.5041 -16.3512 -16.2880 -15.8041
   -15.7437  -6.2533  -6.0818  -5.6990  -5.5030  -5.4216  -5.3200  -5.1931
    -5.1732  -5.0836  -4.9532  -4.8613  -4.8053  -4.7927  -4.7211  -4.6467
    -4.6182  -4.5497  -4.5368  -4.4231  -4.4206  -4.3640  -4.3497  -4.2545
    -4.2315  -4.1761  -4.1135  -4.1028  -4.0946  -4.0819  -4.0004  -3.9838
    -3.9159  -3.8474  -3.8398  -3.7487  -3.7425  -3.7333  -3.6256  -3.6193
    -3.5904  -3.4763  -3.4537  -3.4150  -3.3029  -3.1378  -3.0959  -3.0425
    -2.9823  -2.9640  -2.9010  -2.8869  -2.8847  -2.7731  -2.7581  -2.7411
    -2.6509  -2.5973  -2.5167  -2.4374  -2.4352  -2.3988  -2.3417  -2.2895
    -2.2383  -2.1763  -2.1708  -2.1270  -2.0818  -2.0801  -1.9331  -1.8526
    -1.8340  -1.8303  -1.8206  -1.7184  -1.6275  -1.5704  -1.5613  -1.5290
    -1.5208  -1.5058  -1.4536  -1.3719  -1.3509  -1.3303  -1.3141  -1.2917
    -1.2809  -1.1638  -1.0734  -0.9941  -0.9578  -0.8880  -0.8767  -0.8236
    -0.7567  -0.7200  -0.6702  -0.3777   0.8199   0.9173   1.2103   1.4927
     1.6002   1.6856   1.7160   1.8085   1.8406   1.9118   1.9502   2.0180
     2.0210   2.1681   2.1832   2.2551   2.2809   2.3093   2.3894   2.4139
     2.4621   2.4692   2.5056   2.5186   2.5979   2.6241   2.6691   2.7151
     2.7391   2.7484   2.7934   2.8262   2.8535   2.8736   2.8756   2.9919
     3.0044   3.0316   3.2069   3.2086   3.2347   3.2421   3.3449   3.4042
     3.4303   3.4973   3.5917   3.7428   3.8739   3.8892   4.0747   4.2673
     4.3996   4.4696   4.5013   4.6444   4.7831   4.9215   4.9590   5.0497
     5.1839   5.1985   5.2286   5.2439   5.3342   5.3383   5.3659   5.4552
     5.4756   5.5235   5.6885   5.7068   5.7911   5.8745   5.9015   5.9067
     5.9970   6.0320   6.2228   6.2863   6.3406   6.4158   6.5817   6.6062
     7.1095   7.8006   7.9886   8.0232   8.2189   8.3087   8.5734   8.7205
     8.7997   9.0642   9.1945   9.2331   9.3665   9.4889   9.6319

[...]

          k =-0.0759 0.0000 0.0000 ( 34758 PWs)   bands (ev):

[...]

 ------ SPIN DOWN ----------

[...]

          k = 0.0506-0.0840 0.0000 ( 34628 PWs)   bands (ev):

[...]

          k =-0.0759-0.0840 0.0000 ( 34556 PWs)   bands (ev):

   -58.4950 -58.4934 -57.5827 -57.5827 -57.5677 -57.4927 -57.4654 -57.4481
   -57.3460 -57.3162 -57.2560 -57.2478 -57.1072 -57.1072 -57.0007 -56.9990
   -34.7671 -34.7664 -34.7650 -34.7647 -34.6699 -34.6684 -33.9078 -33.9074
   -33.9021 -33.8885 -33.8497 -33.8074 -33.8073 -33.7958 -33.7813 -33.7771
   -33.7710 -33.7620 -33.7306 -33.7020 -33.6964 -33.6772 -33.6770 -33.6707
   -33.6685 -33.6290 -33.5963 -33.5700 -33.5688 -33.5668 -33.5642 -33.5258
   -33.4869 -33.4840 -33.4798 -33.4686 -33.4536 -33.4536 -33.3524 -33.3519
   -33.3474 -33.3371 -33.2988 -33.2985 -33.2452 -33.2440 -33.2387 -33.2318
   -18.3708 -18.0198 -18.0195 -17.9496 -17.9476 -17.7082 -17.6641 -17.6624
   -17.6604 -17.3908 -17.2629 -17.2546 -17.2523 -17.1621 -17.1552 -17.1027
   -17.0620 -17.0165 -17.0000 -16.9865 -16.9853 -16.9801 -16.9753 -16.7755
   -16.7530 -16.7413 -16.7372 -16.6480 -16.6456 -16.4662 -16.4455 -15.8538
   -15.8537  -6.0721  -5.0902  -5.0804  -5.0119  -5.0098  -4.8779  -4.8777
    -4.8753  -4.8698  -4.6243  -4.6200  -4.6153  -4.5532  -4.4903  -4.4193
    -4.4170  -4.4156  -4.3825  -4.3683  -4.3542  -4.3422  -4.3242  -4.2756
    -4.2722  -4.2451  -4.2420  -4.2256  -4.1158  -4.0635  -3.9988  -3.9791
    -3.9459  -3.8709  -3.8553  -3.8526  -3.7372  -3.6584  -3.6472  -3.6441
    -3.5196  -3.5165  -3.3629  -3.3619  -3.3498  -3.3149  -3.2456  -3.2106
    -3.1449  -3.1202  -3.0612  -3.0511  -3.0177  -3.0038  -2.9849  -2.9050
    -2.8578  -2.7663  -2.7288  -2.6843  -2.6444  -2.6138  -2.5800  -2.5589
    -2.5283  -2.4575  -2.4306  -2.4240  -2.3886  -2.3422  -2.2856  -2.2536
    -2.1393  -2.0695  -2.0561  -2.0447  -1.9280  -1.8636  -1.8440  -1.6958
    -1.6599  -1.6339  -1.6193  -1.5946  -1.3550  -1.3109  -1.2970  -1.2887
    -1.2555  -1.2035  -1.1306  -1.0423  -0.9820  -0.9511  -0.9377  -0.9018
    -0.8787  -0.8437  -0.7757  -0.7624   1.3969   1.4009   1.4125   1.4183
     1.7602   1.7609   1.8888   1.8906   2.0397   2.0976   2.1006   2.1541
     2.2264   2.2556   2.3502   2.4217   2.4305   2.4984   2.5297   2.5784
     2.5917   2.6283   2.7492   2.7546   2.7667   2.7831   2.8007   2.8288
     2.8786   2.9042   2.9454   3.0345   3.0375   3.0406   3.0633   3.0784
     3.1553   3.1860   3.1896   3.2223   3.2517   3.2770   3.2915   3.2937
     3.3557   3.3819   3.5312   3.6061   3.6814   3.6834   3.9361   3.9366
     4.3304   4.4197   4.4458   4.5046   4.6166   4.6492   4.6962   4.7428
     4.9539   4.9717   4.9787   4.9798   5.4649   5.4696   5.4877   5.6993
     5.7280   5.7303   5.7992   5.8125   5.8893   5.8939   5.9405   6.0347
     6.0798   6.0871   6.1636   6.2303   6.2902   6.3882   6.8490   7.1329
     7.4106   7.4230   7.4709   7.5328   7.7088   7.7127   7.8517   7.9399
     8.2747   8.2757   8.4467   8.5933   9.0574   9.0845   9.1881

     the Fermi energy is    -0.4934 ev

!    total energy              =   -3005.52859163 Ry
     Harris-Foulkes estimate   =   -3005.52859088 Ry
     estimated scf accuracy    <       0.00000044 Ry

     The total energy is the sum of the following terms:

     one-electron contribution =  -41015.49890527 Ry
     hartree contribution      =   20573.45623382 Ry
     xc contribution           =    -546.75315697 Ry
     ewald contribution        =   17983.28689550 Ry
     smearing contrib. (-TS)   =      -0.01965872 Ry

     total magnetization       =     0.00 Bohr mag/cell
     absolute magnetization    =     0.01 Bohr mag/cell

     convergence has been achieved in  12 iterations

     Forces acting on atoms (Ry/au):

     negative rho (up, down):  1.351E-02 1.351E-02
     atom    1 type  1   force =    -0.00001169   -0.00108895   -0.10420384
     atom    2 type  2   force =     0.00002387    0.00000000    0.03814053
     atom    3 type  1   force =    -0.00016815    0.00000000   -0.02286378
     atom    4 type  2   force =    -0.00615586    0.00311223   -0.00579220
     atom    5 type  1   force =     0.00026252    0.00023398   -0.00104535
     atom    6 type  2   force =    -0.00037636    0.00000000    0.00050210
     atom    7 type  1   force =     0.00293853    0.00000000    0.00265414
     atom    8 type  2   force =     0.00042399    0.00046833    0.00049938
     atom    9 type  1   force =    -0.00001169    0.00108895   -0.10420384
     atom   10 type  2   force =    -0.00005666    0.00000000    0.03429541
     atom   11 type  1   force =    -0.00014355    0.00000000    0.01124986
     atom   12 type  2   force =    -0.00615586   -0.00311223   -0.00579220
     atom   13 type  1   force =     0.00026252   -0.00023398   -0.00104535
     atom   14 type  2   force =    -0.00092575    0.00000000   -0.00096473
     atom   15 type  1   force =     0.00084682    0.00000000    0.00128935
     atom   16 type  2   force =     0.00042399   -0.00046833    0.00049938
     atom   17 type  2   force =    -0.00005301    0.00000000    0.06639193
     atom   18 type  1   force =     0.00011841    0.00000000    0.13066982
     atom   19 type  2   force =    -0.00018714    0.00000000   -0.08419209
     atom   20 type  2   force =    -0.05796375    0.00016678   -0.03630990
     atom   21 type  2   force =     0.05798507    0.00017905   -0.03622968
     atom   22 type  1   force =    -0.00007793    0.00086143    0.07793103
     atom   23 type  2   force =    -0.00016940    0.00000000    0.00153838
     atom   24 type  2   force =    -0.00009313    0.00000000   -0.03636044
     atom   25 type  2   force =     0.00591674    0.00306715   -0.00547033
     atom   26 type  1   force =    -0.00039463    0.00000000    0.00032449
     atom   27 type  2   force =     0.00033178    0.00000000    0.00143122
     atom   28 type  2   force =    -0.00021803    0.00036252   -0.00042631
     atom   29 type  2   force =    -0.00030770    0.00013540    0.00007498
     atom   30 type  1   force =    -0.00045278    0.00092342    0.00100893
     atom   31 type  2   force =    -0.00002030    0.00000000   -0.00056241
     atom   32 type  2   force =     0.00022968   -0.00054819   -0.00081766
     atom   33 type  2   force =    -0.00002835    0.00000000    0.06641345
     atom   34 type  1   force =     0.00009278    0.00000000    0.13047923
     atom   35 type  2   force =    -0.00018890    0.00000000   -0.08356855
     atom   36 type  2   force =    -0.05796375   -0.00016678   -0.03630990
     atom   37 type  2   force =     0.05798507   -0.00017905   -0.03622968
     atom   38 type  1   force =    -0.00007793   -0.00086143    0.07793103
     atom   39 type  2   force =    -0.00011866    0.00000000   -0.00017037
     atom   40 type  2   force =     0.00008617    0.00000000   -0.03525630
     atom   41 type  2   force =     0.00591674   -0.00306715   -0.00547033
     atom   42 type  1   force =    -0.00058115    0.00000000    0.00089606
     atom   43 type  2   force =     0.00046627    0.00000000    0.00161864
     atom   44 type  2   force =    -0.00021803   -0.00036252   -0.00042631
     atom   45 type  2   force =    -0.00030770   -0.00013540    0.00007498
     atom   46 type  1   force =    -0.00045278   -0.00092342    0.00100893
     atom   47 type  2   force =     0.00154570    0.00000000    0.00040245
     atom   48 type  2   force =     0.00022968    0.00054819   -0.00081766
     atom   49 type  2   force =    -0.04567093    0.00000000   -0.02876793
     atom   50 type  3   force =     0.04346523    0.00000000    0.02597147

     Total force =     0.348195     Total SCF correction =     0.002528
 !ASE

     Writing output data file calc.save

     General routines

     Parallel routines

   This run was terminated on:  18:50:58  10Feb2018

   JOB DONE.