     Program PWSCF v.5.1rc2 (svn rev. ) starts on 10Feb2018 at 15: 5:56

     Current dimensions of program PWSCF are:
     Max number of different atomic species (ntypx) = 10
     Max number of k-points (npk) =  40000
     Max angular momentum in pseudopotentials (lmaxx) =  3

     IMPORTANT: XC functional enforced from input :
     Exchange-correlation      = BEEF ( 1  4 27 13 2)
     Any further DFT definition will be discarded
     Please, verify this is what you really want

     Subspace diagonalization in iterative solution of the eigenvalue problem:
     a serial algorithm will be used

     Generating pointlists ...
     new r_m :   0.4125 (alat units)  0.7795 (a.u.) for type    1
     new r_m :   0.3994 (alat units)  0.7547 (a.u.) for type    2
     new r_m :   0.3994 (alat units)  0.7547 (a.u.) for type    3

     bravais-lattice index     =            0
     lattice parameter (alat)  =       1.8897  a.u.
     unit-cell volume          =    7990.9933 (a.u.)^3
     number of atoms/cell      =           50
     number of atomic types    =            3
     number of electrons       =       391.00
     number of Kohn-Sham states=          295
     kinetic-energy cutoff     =      40.4243  Ry
     charge density cutoff     =     404.2426  Ry
     convergence threshold     =      7.3E-07
     mixing beta               =       0.1000
     number of iterations used =           10  plain     mixing
     Exchange-correlation      = BEEF ( 1  4 27 13 2)
     nstep                     =           50

     celldm(1)=   1.889726  celldm(2)=   0.000000  celldm(3)=   0.000000
     celldm(4)=   0.000000  celldm(5)=   0.000000  celldm(6)=   0.000000

     crystal axes: (cart. coord. in units of alat)
               a(1) = (   6.590708   0.000000   0.000000 )
               a(2) = (   0.000000   5.950229   0.000000 )
               a(3) = (   0.000000   0.000000  30.195235 )

     reciprocal axes: (cart. coord. in units 2 pi/alat)
               b(1) = (  0.151729  0.000000  0.000000 )
               b(2) = (  0.000000  0.168061  0.000000 )
               b(3) = (  0.000000  0.000000  0.033118 )

     PseudoPot. # 1 for Ti read from file:
     /home/alatimer/bin/psp/esp_psp_w_gbrvRu/Ti.UPF
     MD5 check sum: 8e4df49b7f0d34bbd5052bf3f5ea0213
     Pseudo is Ultrasoft, Zval = 12.0
     Generated by new atomic code, or converted to UPF format
     Using radial grid of  851 points,  6 beta functions with:
                l(1) =   0
                l(2) =   0
                l(3) =   1
                l(4) =   1
                l(5) =   2
                l(6) =   2
     Q(r) pseudized with  8 coefficients,  rinner =    1.000   1.000   1.000
                                                       1.000   1.000

     PseudoPot. # 2 for  O read from file:
     /home/alatimer/bin/psp/esp_psp_w_gbrvRu/O.UPF
     MD5 check sum: e057bbcf3229fb5d8c36c0c92f9568b4
     Pseudo is Ultrasoft + core correction, Zval =  6.0
     Generated using "atomic" code by A. Dal Corso  v.5.0.2 svn rev. 9415
     Using radial grid of 1095 points,  4 beta functions with:
                l(1) =   0
                l(2) =   0
                l(3) =   1
                l(4) =   1
     Q(r) pseudized with 0 coefficients

     PseudoPot. # 3 for  H read from file:
     /home/alatimer/bin/psp/esp_psp_w_gbrvRu/H.UPF
     MD5 check sum: bd57da0722753ddfd9833a65b40bb853
     Pseudo is Ultrasoft, Zval =  1.0
     Generated using "atomic" code by A. Dal Corso  v.5.0.2 svn rev. 9415
     Using radial grid of  929 points,  2 beta functions with:
                l(1) =   0
                l(2) =   0
     Q(r) pseudized with 0 coefficients

     vdW kernel table read from file vdW_kernel_table
     MD5 check sum: 095c7af220d748ca6e76c0b4c6cfb241

     atomic species   valence    mass     pseudopotential
        Ti1           12.00    47.88000     Ti( 1.00)
        O1             6.00    15.99940      O( 1.00)
        H1             1.00     1.00794      H( 1.00)

     Starting magnetic structure
     atomic species   magnetization
        Ti1          0.250
        O1           0.500
        H1           0.000

      2 Sym. Ops. (no inversion) found ( 1 have fractional translation)

   Cartesian axes

     site n.     atom                  positions (alat units)
         1           Ti1 tau(   1) = (   1.6476770   0.7437786   2.6545865  )
         2           O1  tau(   2) = (   1.6476770   2.2313359   3.9361215  )
         3           Ti1 tau(   3) = (   1.6476770   2.2313359   5.9499405  )
         4           O1  tau(   4) = (   0.3661420   0.7437786   5.9499405  )
         5           Ti1 tau(   5) = (   1.6423058   0.7993178   9.2289010  )
         6           O1  tau(   6) = (   1.6406404   2.2313359  10.4535548  )
         7           Ti1 tau(   7) = (   1.6373334   2.2313359  13.0586656  )
         8           O1  tau(   8) = (   0.3716334   0.7231912  12.7369480  )
         9           Ti1 tau(   9) = (   1.6476770   3.7188931   2.6545865  )
        10           O1  tau(  10) = (   1.6476770   5.2064503   3.9361215  )
        11           Ti1 tau(  11) = (   1.6476770   5.2064503   5.9499405  )
        12           O1  tau(  12) = (   0.3661420   3.7188931   5.9499405  )
        13           Ti1 tau(  13) = (   1.6423059   3.6633529   9.2289023  )
        14           O1  tau(  14) = (   1.6396028   5.2064504  10.5374954  )
        15           Ti1 tau(  15) = (   1.6366369   5.2064504  12.3426698  )
        16           O1  tau(  16) = (   0.3716333   3.7394800  12.7369475  )
        17           O1  tau(  17) = (   1.6476770   2.2313359   1.3730516  )
        18           Ti1 tau(  18) = (   4.9430310   2.2313359   2.6545865  )
        19           O1  tau(  19) = (   4.9430310   2.2313359   4.6684056  )
        20           O1  tau(  20) = (   6.2245660   0.7437786   2.6545865  )
        21           O1  tau(  21) = (   3.6614961   0.7437786   2.6545865  )
        22           Ti1 tau(  22) = (   4.9430310   0.7437786   5.9499405  )
        23           O1  tau(  23) = (   1.6444126   2.2313359   7.9291264  )
        24           O1  tau(  24) = (   4.9430310   2.2313359   7.2314755  )
        25           O1  tau(  25) = (   2.9292120   0.7437786   5.9499405  )
        26           Ti1 tau(  26) = (   4.9374203   2.2313360   9.4425711  )
        27           O1  tau(  27) = (   4.9384755   2.2313359  11.2756104  )
        28           O1  tau(  28) = (   6.2333856   0.7395591   9.2701299  )
        29           O1  tau(  29) = (   3.6424277   0.7403199   9.2676498  )
        30           Ti1 tau(  30) = (   4.9388558   0.7382018  12.7898683  )
        31           O1  tau(  31) = (   4.8884434   2.2313358  13.8602379  )
        32           O1  tau(  32) = (   2.8718067   0.7224686  12.6922084  )
        33           O1  tau(  33) = (   1.6476770   5.2064503   1.3730516  )
        34           Ti1 tau(  34) = (   4.9430310   5.2064503   2.6545865  )
        35           O1  tau(  35) = (   4.9430310   5.2064503   4.6684056  )
        36           O1  tau(  36) = (   6.2245660   3.7188931   2.6545865  )
        37           O1  tau(  37) = (   3.6614961   3.7188931   2.6545865  )
        38           Ti1 tau(  38) = (   4.9430310   3.7188931   5.9499405  )
        39           O1  tau(  39) = (   1.6444418   5.2064506   7.9393866  )
        40           O1  tau(  40) = (   4.9430310   5.2064503   7.2314755  )
        41           O1  tau(  41) = (   2.9292120   3.7188931   5.9499405  )
        42           Ti1 tau(  42) = (   4.9387790   5.2064503   9.4241858  )
        43           O1  tau(  43) = (   4.9379278   5.2064504  11.2756977  )
        44           O1  tau(  44) = (   6.2333855   3.7231127   9.2701299  )
        45           O1  tau(  45) = (   3.6424278   3.7223520   9.2676499  )
        46           Ti1 tau(  46) = (   4.9388558   3.7244696  12.7898683  )
        47           O1  tau(  47) = (   4.8902929   5.2064502  13.8618696  )
        48           O1  tau(  48) = (   2.8718066   3.7402036  12.6922086  )
        49           O1  tau(  49) = (   1.7618258   2.2313358  14.8494317  )
        50           H1  tau(  50) = (   2.6007197   2.2313366  15.3328018  )

     number of k points=    32  Fermi-Dirac smearing, width (Ry)=  0.0073
                       cart. coord. in units 2pi/alat
        k(    1) = (   0.0000000   0.0000000   0.0000000), wk =   0.0277778
        k(    2) = (   0.0000000   0.0280101   0.0000000), wk =   0.0555556
        k(    3) = (   0.0000000   0.0560203   0.0000000), wk =   0.0555556
        k(    4) = (   0.0000000  -0.0840304   0.0000000), wk =   0.0277778
        k(    5) = (   0.0252881   0.0000000   0.0000000), wk =   0.0555556
        k(    6) = (   0.0252881   0.0280101   0.0000000), wk =   0.1111111
        k(    7) = (   0.0252881   0.0560203   0.0000000), wk =   0.1111111
        k(    8) = (   0.0252881  -0.0840304   0.0000000), wk =   0.0555556
        k(    9) = (   0.0505763   0.0000000   0.0000000), wk =   0.0555556
        k(   10) = (   0.0505763   0.0280101   0.0000000), wk =   0.1111111
        k(   11) = (   0.0505763   0.0560203   0.0000000), wk =   0.1111111
        k(   12) = (   0.0505763  -0.0840304   0.0000000), wk =   0.0555556
        k(   13) = (  -0.0758644   0.0000000   0.0000000), wk =   0.0277778
        k(   14) = (  -0.0758644   0.0280101   0.0000000), wk =   0.0555556
        k(   15) = (  -0.0758644   0.0560203   0.0000000), wk =   0.0555556
        k(   16) = (  -0.0758644  -0.0840304   0.0000000), wk =   0.0277778
        k(   17) = (   0.0000000   0.0000000   0.0000000), wk =   0.0277778
        k(   18) = (   0.0000000   0.0280101   0.0000000), wk =   0.0555556
        k(   19) = (   0.0000000   0.0560203   0.0000000), wk =   0.0555556
        k(   20) = (   0.0000000  -0.0840304   0.0000000), wk =   0.0277778
        k(   21) = (   0.0252881   0.0000000   0.0000000), wk =   0.0555556
        k(   22) = (   0.0252881   0.0280101   0.0000000), wk =   0.1111111
        k(   23) = (   0.0252881   0.0560203   0.0000000), wk =   0.1111111
        k(   24) = (   0.0252881  -0.0840304   0.0000000), wk =   0.0555556
        k(   25) = (   0.0505763   0.0000000   0.0000000), wk =   0.0555556
        k(   26) = (   0.0505763   0.0280101   0.0000000), wk =   0.1111111
        k(   27) = (   0.0505763   0.0560203   0.0000000), wk =   0.1111111
        k(   28) = (   0.0505763  -0.0840304   0.0000000), wk =   0.0555556
        k(   29) = (  -0.0758644   0.0000000   0.0000000), wk =   0.0277778
        k(   30) = (  -0.0758644   0.0280101   0.0000000), wk =   0.0555556
        k(   31) = (  -0.0758644   0.0560203   0.0000000), wk =   0.0555556
        k(   32) = (  -0.0758644  -0.0840304   0.0000000), wk =   0.0277778

     Largest allocated arrays     est. size (Mb)     dimensions
     Largest temporary arrays     est. size (Mb)     dimensions

     Check: negative/imaginary core charge=   -0.000049    0.000000

     Initial potential from superposition of free atoms
     Check: negative starting charge=(component1):   -0.016872
     Check: negative starting charge=(component2):   -0.010150

     starting charge  374.99924, renormalised to  391.00000

[...]
     atom:   32    charge:    1.9494    magn:    0.9084    constr:    0.0000
     atom:   33    charge:    1.9561    magn:    0.8876    constr:    0.0000
     atom:   34    charge:    3.2363    magn:    0.7699    constr:    0.0000
     atom:   35    charge:    1.9651    magn:    0.8868    constr:    0.0000
     atom:   36    charge:    1.9727    magn:    0.8914    constr:    0.0000
     atom:   37    charge:    1.9727    magn:    0.8914    constr:    0.0000
     atom:   38    charge:    3.2067    magn:    0.7388    constr:    0.0000
     atom:   39    charge:    1.9709    magn:    0.8891    constr:    0.0000
     atom:   40    charge:    1.9639    magn:    0.8882    constr:    0.0000
     atom:   41    charge:    1.9731    magn:    0.8899    constr:    0.0000
     atom:   42    charge:    3.1951    magn:    0.7263    constr:    0.0000
     atom:   43    charge:    1.9540    magn:    0.8948    constr:    0.0000
     atom:   44    charge:    1.9708    magn:    0.8898    constr:    0.0000
     atom:   45    charge:    1.9687    magn:    0.8888    constr:    0.0000
     atom:   46    charge:    3.1883    magn:    0.7288    constr:    0.0000
     atom:   47    charge:    1.9299    magn:    0.9301    constr:    0.0000
     atom:   48    charge:    1.9494    magn:    0.9084    constr:    0.0000
     atom:   49    charge:    1.9282    magn:    0.9342    constr:    0.0000
     atom:   50    charge:    0.3482    magn:    0.0543    constr:    0.0000

     total energy              =   -2986.82316371 Ry
     Harris-Foulkes estimate   =   -2996.97040519 Ry
     estimated scf accuracy    <      70.75563488 Ry

     total magnetization       =    16.05 Bohr mag/cell
     absolute magnetization    =    26.34 Bohr mag/cell

[...]

     total energy              =   -3005.52981434 Ry
     Harris-Foulkes estimate   =   -3005.52981241 Ry
     estimated scf accuracy    <       0.00000074 Ry

[...]

     iteration # 40     ecut=    40.42 Ry     beta=0.10
     Davidson diagonalization with overlap
     ethr =  1.89E-10,  avg # of iterations =  2.0

     negative rho (up, down):  1.350E-02 1.350E-02

     Magnetic moment per site:
     atom:    1    charge:    3.1245    magn:   -0.0002    constr:    0.0000
     atom:    2    charge:    1.9445    magn:    0.0002    constr:    0.0000
     atom:    3    charge:    3.1200    magn:    0.0000    constr:    0.0000
     atom:    4    charge:    1.9495    magn:   -0.0000    constr:    0.0000
     atom:    5    charge:    3.1144    magn:    0.0001    constr:    0.0000
     atom:    6    charge:    1.9384    magn:   -0.0002    constr:    0.0000
     atom:    7    charge:    3.1162    magn:    0.0000    constr:    0.0000
     atom:    8    charge:    1.9443    magn:   -0.0001    constr:    0.0000
     atom:    9    charge:    3.1245    magn:   -0.0002    constr:    0.0000
     atom:   10    charge:    1.9446    magn:    0.0002    constr:    0.0000
     atom:   11    charge:    3.1198    magn:    0.0000    constr:    0.0000
     atom:   12    charge:    1.9495    magn:   -0.0000    constr:    0.0000
     atom:   13    charge:    3.1144    magn:    0.0001    constr:    0.0000
     atom:   14    charge:    1.9521    magn:   -0.0000    constr:    0.0000
     atom:   15    charge:    3.1165    magn:    0.0000    constr:    0.0000
     atom:   16    charge:    1.9443    magn:   -0.0001    constr:    0.0000
     atom:   17    charge:    1.9174    magn:    0.0010    constr:    0.0000
     atom:   18    charge:    3.1239    magn:    0.0000    constr:    0.0000
     atom:   19    charge:    1.9398    magn:    0.0000    constr:    0.0000
     atom:   20    charge:    1.9463    magn:    0.0000    constr:    0.0000
     atom:   21    charge:    1.9463    magn:    0.0000    constr:    0.0000
     atom:   22    charge:    3.1199    magn:    0.0000    constr:    0.0000
     atom:   23    charge:    1.9535    magn:   -0.0001    constr:    0.0000
     atom:   24    charge:    1.9345    magn:   -0.0002    constr:    0.0000
     atom:   25    charge:    1.9495    magn:   -0.0000    constr:    0.0000
     atom:   26    charge:    3.1144    magn:    0.0001    constr:    0.0000
     atom:   27    charge:    1.9374    magn:   -0.0003    constr:    0.0000
     atom:   28    charge:    1.9474    magn:   -0.0002    constr:    0.0000
     atom:   29    charge:    1.9452    magn:   -0.0002    constr:    0.0000
     atom:   30    charge:    3.1193    magn:    0.0000    constr:    0.0000
     atom:   31    charge:    1.9453    magn:   -0.0000    constr:    0.0000
     atom:   32    charge:    1.9443    magn:   -0.0001    constr:    0.0000
     atom:   33    charge:    1.9174    magn:    0.0011    constr:    0.0000
     atom:   34    charge:    3.1239    magn:    0.0000    constr:    0.0000
     atom:   35    charge:    1.9398    magn:    0.0000    constr:    0.0000
     atom:   36    charge:    1.9463    magn:    0.0000    constr:    0.0000
     atom:   37    charge:    1.9463    magn:    0.0000    constr:    0.0000
     atom:   38    charge:    3.1199    magn:    0.0000    constr:    0.0000
     atom:   39    charge:    1.9454    magn:   -0.0001    constr:    0.0000
     atom:   40    charge:    1.9349    magn:   -0.0002    constr:    0.0000
     atom:   41    charge:    1.9495    magn:   -0.0000    constr:    0.0000
     atom:   42    charge:    3.1217    magn:    0.0001    constr:    0.0000
     atom:   43    charge:    1.9373    magn:   -0.0003    constr:    0.0000
     atom:   44    charge:    1.9474    magn:   -0.0002    constr:    0.0000
     atom:   45    charge:    1.9452    magn:   -0.0002    constr:    0.0000
     atom:   46    charge:    3.1193    magn:    0.0000    constr:    0.0000
     atom:   47    charge:    1.9454    magn:   -0.0001    constr:    0.0000
     atom:   48    charge:    1.9443    magn:   -0.0001    constr:    0.0000
     atom:   49    charge:    1.9562    magn:    0.0000    constr:    0.0000
     atom:   50    charge:    0.3946    magn:   -0.0000    constr:    0.0000

     End of self-consistent calculation

 ------ SPIN UP ------------

          k = 0.0000 0.0000 0.0000 ( 34665 PWs)   bands (ev):

   -58.5108 -58.4757 -57.5993 -57.5697 -57.5636 -57.4871 -57.4741 -57.4345
   -57.3369 -57.3056 -57.2686 -57.2330 -57.1223 -57.0871 -57.0185 -56.9806
   -34.9555 -34.7795 -34.7507 -34.7169 -34.6220 -34.5651 -34.0984 -34.0542
   -34.0163 -33.8731 -33.8522 -33.7939 -33.7727 -33.7665 -33.7572 -33.7483
   -33.7431 -33.7257 -33.7052 -33.6991 -33.6968 -33.6757 -33.6655 -33.6609
   -33.6544 -33.6456 -33.6392 -33.5972 -33.5553 -33.5518 -33.5408 -33.5054
   -33.5011 -33.4941 -33.4633 -33.4504 -33.4377 -33.4376 -33.4175 -33.3894
   -33.3406 -33.2957 -33.2514 -33.2508 -33.2317 -33.2073 -33.1490 -33.0994
   -18.6737 -18.2599 -18.2241 -18.0135 -17.9156 -17.7473 -17.7336 -17.6313
   -17.5956 -17.5721 -17.4611 -17.2647 -17.2228 -17.2165 -17.1521 -17.0539
   -17.0328 -17.0112 -16.9438 -16.9018 -16.8533 -16.8182 -16.8114 -16.7880
   -16.6940 -16.6318 -16.6176 -16.5149 -16.5006 -16.3506 -16.2874 -15.8041
   -15.7439  -6.2518  -5.9826  -5.6971  -5.5008  -5.4192  -5.3172  -5.1913
    -5.1688  -5.0821  -4.9509  -4.8593  -4.8036  -4.7909  -4.7191  -4.6445
    -4.6164  -4.5480  -4.5343  -4.4213  -4.4185  -4.3625  -4.3466  -4.2524
    -4.2284  -4.1738  -4.1115  -4.0990  -4.0922  -4.0801  -3.9979  -3.9820
    -3.9139  -3.8424  -3.8365  -3.7466  -3.7381  -3.7317  -3.6235  -3.6190
    -3.5874  -3.4749  -3.4523  -3.4131  -3.3012  -3.1327  -3.0941  -3.0407
    -2.9771  -2.9619  -2.8993  -2.8858  -2.8815  -2.7717  -2.7558  -2.7395
    -2.6485  -2.5954  -2.5114  -2.4359  -2.4320  -2.3987  -2.3394  -2.2889
    -2.2366  -2.1791  -2.1739  -2.1254  -2.0832  -2.0782  -1.9314  -1.8487
    -1.8322  -1.8275  -1.8175  -1.7149  -1.6257  -1.5693  -1.5588  -1.5233
    -1.5212  -1.5049  -1.4534  -1.3699  -1.3492  -1.3291  -1.3142  -1.2894
    -1.2796  -1.1618  -1.0712  -0.9915  -0.9559  -0.8852  -0.8755  -0.8228
    -0.7561  -0.7198  -0.6695  -0.3750   0.8207   0.9180   1.2109   1.4943
     1.6018   1.6876   1.7167   1.8095   1.8414   1.9185   1.9522   2.0194
     2.0249   2.1704   2.1850   2.2568   2.2830   2.3112   2.3915   2.4154
     2.4633   2.4706   2.5076   2.5202   2.6021   2.6260   2.6706   2.7167
     2.7434   2.7498   2.7971   2.8281   2.8551   2.8746   2.8813   2.9933
     3.0080   3.0332   3.2078   3.2109   3.2373   3.2479   3.3470   3.4061
     3.4404   3.4990   3.5934   3.7440   3.8766   3.8908   4.0776   4.2695
     4.4014   4.4794   4.5032   4.6459   4.7914   4.9235   4.9611   5.0578
     5.1863   5.2003   5.2305   5.2457   5.3361   5.3385   5.3515   5.4570
     5.4777   5.5256   5.6902   5.7095   5.7879   5.8776   5.9033   5.9086
     5.9986   6.0381   6.2243   6.2881   6.3423   6.4102   6.5821   6.6084
     7.1059   7.7897   7.9894   8.0200   8.2196   8.2397   8.5741   8.7198
     8.7984   9.0636   9.1871   9.2281   9.3570   9.4739   9.6164

[...]

          k =-0.0759 0.0000 0.0000 ( 34758 PWs)   bands (ev):

[...]

 ------ SPIN DOWN ----------

[...]

          k = 0.0506-0.0840 0.0000 ( 34628 PWs)   bands (ev):

[...]

          k =-0.0759-0.0840 0.0000 ( 34556 PWs)   bands (ev):

   -58.4928 -58.4911 -57.5809 -57.5809 -57.5659 -57.4909 -57.4625 -57.4451
   -57.3299 -57.3122 -57.2542 -57.2460 -57.1062 -57.1062 -57.0000 -56.9983
   -34.7647 -34.7642 -34.7626 -34.7626 -34.6677 -34.6662 -33.9060 -33.9056
   -33.9003 -33.8856 -33.8479 -33.8055 -33.8055 -33.7940 -33.7780 -33.7751
   -33.7690 -33.7602 -33.7289 -33.6987 -33.6938 -33.6745 -33.6730 -33.6659
   -33.6589 -33.6261 -33.5861 -33.5680 -33.5669 -33.5593 -33.5496 -33.5218
   -33.4851 -33.4822 -33.4779 -33.4669 -33.4526 -33.4526 -33.3513 -33.3509
   -33.3466 -33.3366 -33.2978 -33.2974 -33.2440 -33.2429 -33.2380 -33.2310
   -18.2231 -18.0181 -18.0178 -17.9479 -17.9459 -17.7049 -17.6618 -17.6607
   -17.6587 -17.3889 -17.2614 -17.2530 -17.2504 -17.1604 -17.1536 -17.0998
   -17.0598 -17.0129 -16.9963 -16.9835 -16.9821 -16.9780 -16.9729 -16.7737
   -16.7517 -16.7382 -16.7356 -16.6462 -16.6439 -16.4672 -16.4447 -15.8503
   -15.8502  -5.9707  -5.0884  -5.0787  -5.0102  -5.0081  -4.8762  -4.8759
    -4.8727  -4.8669  -4.6226  -4.6179  -4.6137  -4.5505  -4.4883  -4.4175
    -4.4153  -4.4138  -4.3804  -4.3659  -4.3516  -4.3404  -4.3224  -4.2736
    -4.2702  -4.2417  -4.2400  -4.2237  -4.1138  -4.0597  -3.9970  -3.9768
    -3.9423  -3.8669  -3.8535  -3.8507  -3.7352  -3.6560  -3.6450  -3.6410
    -3.5168  -3.5145  -3.3610  -3.3587  -3.3481  -3.3132  -3.2437  -3.2089
    -3.1427  -3.1166  -3.0593  -3.0492  -3.0168  -3.0024  -2.9826  -2.9034
    -2.8563  -2.7643  -2.7270  -2.6836  -2.6422  -2.6118  -2.5782  -2.5568
    -2.5278  -2.4544  -2.4286  -2.4225  -2.3916  -2.3394  -2.2828  -2.2511
    -2.1376  -2.0673  -2.0540  -2.0431  -1.9252  -1.8580  -1.8438  -1.6990
    -1.6590  -1.6322  -1.6190  -1.5941  -1.3527  -1.3108  -1.2956  -1.2851
    -1.2551  -1.2057  -1.1291  -1.0406  -0.9823  -0.9487  -0.9349  -0.9002
    -0.8777  -0.8416  -0.7729  -0.7596   1.3991   1.4031   1.4147   1.4205
     1.7622   1.7629   1.8907   1.8925   2.0423   2.0996   2.1024   2.1562
     2.2288   2.2579   2.3523   2.4248   2.4326   2.5009   2.5343   2.5868
     2.5970   2.6299   2.7540   2.7567   2.7684   2.7848   2.8024   2.8317
     2.8801   2.9051   2.9471   3.0360   3.0393   3.0423   3.0649   3.0802
     3.1568   3.1904   3.1914   3.2291   3.2543   3.2785   3.2931   3.2956
     3.3592   3.3843   3.5347   3.6112   3.6833   3.6847   3.9381   3.9386
     4.3354   4.4216   4.4477   4.5069   4.6243   4.6555   4.6984   4.7559
     4.9555   4.9734   4.9821   4.9862   5.4674   5.4711   5.4891   5.7021
     5.7295   5.7318   5.7989   5.8139   5.8917   5.8960   5.9399   6.0372
     6.0815   6.0889   6.1657   6.2325   6.2917   6.3898   6.7692   7.1248
     7.4110   7.4228   7.4700   7.5319   7.7082   7.7115   7.8504   7.9336
     8.2710   8.2741   8.4459   8.5831   9.0560   9.0797   9.1872

     the Fermi energy is    -0.4917 ev

!    total energy              =   -3005.52982058 Ry
     Harris-Foulkes estimate   =   -3005.52981459 Ry
     estimated scf accuracy    <       0.00000040 Ry

     The total energy is the sum of the following terms:

     one-electron contribution =  -41015.32380219 Ry
     hartree contribution      =   20573.41807659 Ry
     xc contribution           =    -546.73099677 Ry
     ewald contribution        =   17983.12655963 Ry
     smearing contrib. (-TS)   =      -0.01965785 Ry

     total magnetization       =     0.00 Bohr mag/cell
     absolute magnetization    =     0.02 Bohr mag/cell

     convergence has been achieved in  40 iterations

     Forces acting on atoms (Ry/au):

     negative rho (up, down):  1.350E-02 1.350E-02
     atom    1 type  1   force =     0.00001993   -0.00109787   -0.10418439
     atom    2 type  2   force =     0.00003997    0.00000000    0.03810095
     atom    3 type  1   force =    -0.00011304    0.00000000   -0.02283124
     atom    4 type  2   force =    -0.00613518    0.00312311   -0.00582927
     atom    5 type  1   force =     0.00029992    0.00037110   -0.00085119
     atom    6 type  2   force =    -0.00037273    0.00000000   -0.00002092
     atom    7 type  1   force =     0.00103277    0.00000000   -0.00075181
     atom    8 type  2   force =     0.00015263    0.00024016   -0.00017106
     atom    9 type  1   force =     0.00001993    0.00109787   -0.10418439
     atom   10 type  2   force =     0.00003015    0.00000000    0.03425386
     atom   11 type  1   force =    -0.00011336    0.00000000    0.01130800
     atom   12 type  2   force =    -0.00613518   -0.00312311   -0.00582927
     atom   13 type  1   force =     0.00029992   -0.00037110   -0.00085119
     atom   14 type  2   force =    -0.00072777    0.00000000   -0.00104474
     atom   15 type  1   force =     0.00046219    0.00000000    0.00128267
     atom   16 type  2   force =     0.00015263   -0.00024016   -0.00017106
     atom   17 type  2   force =     0.00004399    0.00000000    0.06644787
     atom   18 type  1   force =     0.00014172    0.00000000    0.13059354
     atom   19 type  2   force =    -0.00015539    0.00000000   -0.08411568
     atom   20 type  2   force =    -0.05789320    0.00015484   -0.03634203
     atom   21 type  2   force =     0.05804403    0.00016968   -0.03625018
     atom   22 type  1   force =    -0.00003460    0.00087056    0.07795938
     atom   23 type  2   force =    -0.00015889    0.00000000    0.00136978
     atom   24 type  2   force =    -0.00017298    0.00000000   -0.03627872
     atom   25 type  2   force =     0.00592213    0.00307978   -0.00551501
     atom   26 type  1   force =    -0.00035555    0.00000000    0.00027146
     atom   27 type  2   force =     0.00034549    0.00000000    0.00149507
     atom   28 type  2   force =    -0.00017022    0.00033856   -0.00038543
     atom   29 type  2   force =    -0.00034649    0.00015422    0.00006300
     atom   30 type  1   force =    -0.00004555    0.00065465    0.00072676
     atom   31 type  2   force =    -0.00030107    0.00000000   -0.00020440
     atom   32 type  2   force =     0.00034594   -0.00037607   -0.00008021
     atom   33 type  2   force =    -0.00000684    0.00000000    0.06647152
     atom   34 type  1   force =     0.00011481    0.00000000    0.13039700
     atom   35 type  2   force =    -0.00012717    0.00000000   -0.08356781
     atom   36 type  2   force =    -0.05789320   -0.00015484   -0.03634203
     atom   37 type  2   force =     0.05804403   -0.00016968   -0.03625018
     atom   38 type  1   force =    -0.00003460   -0.00087056    0.07795938
     atom   39 type  2   force =    -0.00007476    0.00000000   -0.00022919
     atom   40 type  2   force =     0.00007984    0.00000000   -0.03528842
     atom   41 type  2   force =     0.00592213   -0.00307978   -0.00551501
     atom   42 type  1   force =    -0.00054742    0.00000000    0.00093548
     atom   43 type  2   force =     0.00040574    0.00000000    0.00164092
     atom   44 type  2   force =    -0.00017022   -0.00033856   -0.00038543
     atom   45 type  2   force =    -0.00034649   -0.00015422    0.00006300
     atom   46 type  1   force =    -0.00004555   -0.00065465    0.00072676
     atom   47 type  2   force =     0.00162367    0.00000000    0.00056922
     atom   48 type  2   force =     0.00034594    0.00037607   -0.00008021
     atom   49 type  2   force =     0.00016204    0.00000000    0.00131866
     atom   50 type  3   force =    -0.00157409    0.00000000   -0.00040384

     Total force =     0.340155     Total SCF correction =     0.002195
 !ASE

     Writing output data file calc.save

     General routines

     Parallel routines

   This run was terminated on:  17:15:22  10Feb2018

   JOB DONE.