     Program PWSCF v.5.1rc2 (svn rev. ) starts on 10Mar2018 at  8:55:15

     Current dimensions of program PWSCF are:
     Max number of different atomic species (ntypx) = 10
     Max number of k-points (npk) =  40000
     Max angular momentum in pseudopotentials (lmaxx) =  3

     IMPORTANT: XC functional enforced from input :
     Exchange-correlation      = BEEF ( 1  4 27 13 2)
     Any further DFT definition will be discarded
     Please, verify this is what you really want

     Subspace diagonalization in iterative solution of the eigenvalue problem:
     a serial algorithm will be used

     Generating pointlists ...
     new r_m :   0.4125 (alat units)  0.7795 (a.u.) for type    1
     new r_m :   0.4125 (alat units)  0.7795 (a.u.) for type    2
     new r_m :   0.4125 (alat units)  0.7795 (a.u.) for type    3

     bravais-lattice index     =            0
     lattice parameter (alat)  =       1.8897  a.u.
     unit-cell volume          =    7990.9933 (a.u.)^3
     number of atoms/cell      =           51
     number of atomic types    =            3
     number of electrons       =       400.00
     number of Kohn-Sham states=          300
     kinetic-energy cutoff     =      40.4243  Ry
     charge density cutoff     =     404.2426  Ry
     convergence threshold     =      7.3E-07
     mixing beta               =       0.1000
     number of iterations used =           10  plain     mixing
     Exchange-correlation      = BEEF ( 1  4 27 13 2)
     nstep                     =           50

     celldm(1)=   1.889726  celldm(2)=   0.000000  celldm(3)=   0.000000
     celldm(4)=   0.000000  celldm(5)=   0.000000  celldm(6)=   0.000000

     crystal axes: (cart. coord. in units of alat)
               a(1) = (   6.590708   0.000000   0.000000 )
               a(2) = (   0.000000   5.950229   0.000000 )
               a(3) = (   0.000000   0.000000  30.195235 )

     reciprocal axes: (cart. coord. in units 2 pi/alat)
               b(1) = (  0.151729  0.000000  0.000000 )
               b(2) = (  0.000000  0.168061  0.000000 )
               b(3) = (  0.000000  0.000000  0.033118 )

     PseudoPot. # 1 for Ti read from file:
     /home/alatimer/bin/psp/esp_psp_w_gbrvRu/Ti.UPF
     MD5 check sum: 8e4df49b7f0d34bbd5052bf3f5ea0213
     Pseudo is Ultrasoft, Zval = 12.0
     Generated by new atomic code, or converted to UPF format
     Using radial grid of  851 points,  6 beta functions with:
                l(1) =   0
                l(2) =   0
                l(3) =   1
                l(4) =   1
                l(5) =   2
                l(6) =   2
     Q(r) pseudized with  8 coefficients,  rinner =    1.000   1.000   1.000
                                                       1.000   1.000

     PseudoPot. # 2 for  O read from file:
     /home/alatimer/bin/psp/esp_psp_w_gbrvRu/O.UPF
     MD5 check sum: e057bbcf3229fb5d8c36c0c92f9568b4
     Pseudo is Ultrasoft + core correction, Zval =  6.0
     Generated using "atomic" code by A. Dal Corso  v.5.0.2 svn rev. 9415
     Using radial grid of 1095 points,  4 beta functions with:
                l(1) =   0
                l(2) =   0
                l(3) =   1
                l(4) =   1
     Q(r) pseudized with 0 coefficients

     PseudoPot. # 3 for  N read from file:
     /home/alatimer/bin/psp/esp_psp_w_gbrvRu/N.UPF
     MD5 check sum: ed8b6a90f28a53b7d71920e7015d2dd6
     Pseudo is Ultrasoft + core correction, Zval =  5.0
     Generated using "atomic" code by A. Dal Corso  v.5.0.2 svn rev. 9415
     Using radial grid of 1085 points,  4 beta functions with:
                l(1) =   0
                l(2) =   0
                l(3) =   1
                l(4) =   1
     Q(r) pseudized with 0 coefficients

     vdW kernel table read from file vdW_kernel_table
     MD5 check sum: 095c7af220d748ca6e76c0b4c6cfb241

     atomic species   valence    mass     pseudopotential
        Ti1           12.00    47.88000     Ti( 1.00)
        O1             6.00    15.99940      O( 1.00)
        N1             5.00    14.00670      N( 1.00)

     Starting magnetic structure
     atomic species   magnetization
        Ti1          0.250
        O1           0.500
        N1           0.600

     No symmetry found

   Cartesian axes

     site n.     atom                  positions (alat units)
         1           Ti1 tau(   1) = (   1.6476770   0.7437786   2.6545865  )
         2           O1  tau(   2) = (   1.6476770   2.2313359   3.9361215  )
         3           Ti1 tau(   3) = (   1.6476770   2.2313359   5.9499405  )
         4           O1  tau(   4) = (   0.3661420   0.7437786   5.9499405  )
         5           Ti1 tau(   5) = (   1.5280591   0.7315068   9.1973351  )
         6           O1  tau(   6) = (   1.6613943   2.1836906  10.6091769  )
         7           Ti1 tau(   7) = (   1.6665780   2.2096385  12.4157880  )
         8           O1  tau(   8) = (   0.4439715   0.7264440  12.7601561  )
         9           Ti1 tau(   9) = (   1.6476770   3.7188931   2.6545865  )
        10           O1  tau(  10) = (   1.6476770   5.2064503   3.9361215  )
        11           Ti1 tau(  11) = (   1.6476770   5.2064503   5.9499405  )
        12           O1  tau(  12) = (   0.3661420   3.7188931   5.9499405  )
        13           Ti1 tau(  13) = (   1.5319291   3.7072436   9.2118370  )
        14           O1  tau(  14) = (   1.6575607   5.2126413  10.6087893  )
        15           Ti1 tau(  15) = (   1.6606453   5.1916961  12.4165775  )
        16           O1  tau(  16) = (   0.4123725   3.7022030  12.5882193  )
        17           O1  tau(  17) = (   1.6476770   2.2313359   1.3730516  )
        18           Ti1 tau(  18) = (   4.9430310   2.2313359   2.6545865  )
        19           O1  tau(  19) = (   4.9430310   2.2313359   4.6684056  )
        20           O1  tau(  20) = (   6.2245660   0.7437786   2.6545865  )
        21           O1  tau(  21) = (   3.6614961   0.7437786   2.6545865  )
        22           Ti1 tau(  22) = (   4.9430310   0.7437786   5.9499405  )
        23           O1  tau(  23) = (   1.6517842   2.2287041   8.0298356  )
        24           O1  tau(  24) = (   4.9430310   2.2313359   7.2314755  )
        25           O1  tau(  25) = (   2.9292120   0.7437786   5.9499405  )
        26           Ti1 tau(  26) = (   4.8605205   2.2076595   9.4238065  )
        27           O1  tau(  27) = (   4.9553550   2.1639423  11.2756624  )
        28           O1  tau(  28) = (   6.2690671   0.7288246   9.2688367  )
        29           O1  tau(  29) = (   3.6660957   0.7249325   9.2867299  )
        30           Ti1 tau(  30) = (   4.9284588   0.7282168  12.7798302  )
        31           O1  tau(  31) = (   4.9953437   2.2216212  13.8477397  )
        32           O1  tau(  32) = (   2.9112183   0.7266397  12.7651274  )
        33           O1  tau(  33) = (   1.6476770   5.2064503   1.3730516  )
        34           Ti1 tau(  34) = (   4.9430310   5.2064503   2.6545865  )
        35           O1  tau(  35) = (   4.9430310   5.2064503   4.6684056  )
        36           O1  tau(  36) = (   6.2245660   3.7188931   2.6545865  )
        37           O1  tau(  37) = (   3.6614961   3.7188931   2.6545865  )
        38           Ti1 tau(  38) = (   4.9430310   3.7188931   5.9499405  )
        39           O1  tau(  39) = (   1.6524867   5.1852222   8.0294571  )
        40           O1  tau(  40) = (   4.9430310   5.2064503   7.2314755  )
        41           O1  tau(  41) = (   2.9292120   3.7188931   5.9499405  )
        42           Ti1 tau(  42) = (   4.8610151   5.1886528   9.4241876  )
        43           O1  tau(  43) = (   4.9550983   5.2107439  11.2753448  )
        44           O1  tau(  44) = (   6.2713562   3.7024388   9.3047907  )
        45           O1  tau(  45) = (   3.6650622   3.7005085   9.3135888  )
        46           Ti1 tau(  46) = (   5.0160509   3.7038162  12.7585864  )
        47           O1  tau(  47) = (   4.9984032   5.1727849  13.8485277  )
        48           O1  tau(  48) = (   2.9655234   3.7049164  12.5317472  )
        49           O1  tau(  49) = (   2.2548149   3.7063572  14.5393114  )
        50           N1  tau(  50) = (   2.4020298   3.6667063  16.9651815  )
        51           N1  tau(  51) = (   2.1425646   3.6919273  15.8611024  )

     number of k points=    40  Fermi-Dirac smearing, width (Ry)=  0.0073
                       cart. coord. in units 2pi/alat
        k(    1) = (   0.0000000   0.0000000   0.0000000), wk =   0.0277778
        k(    2) = (   0.0000000   0.0280101   0.0000000), wk =   0.0555556
        k(    3) = (   0.0000000   0.0560203   0.0000000), wk =   0.0555556
        k(    4) = (   0.0000000  -0.0840304   0.0000000), wk =   0.0277778
        k(    5) = (   0.0252881   0.0000000   0.0000000), wk =   0.0555556
        k(    6) = (   0.0252881   0.0280101   0.0000000), wk =   0.0555556
        k(    7) = (   0.0252881   0.0560203   0.0000000), wk =   0.0555556
        k(    8) = (   0.0252881  -0.0840304   0.0000000), wk =   0.0555556
        k(    9) = (   0.0505763   0.0000000   0.0000000), wk =   0.0555556
        k(   10) = (   0.0505763   0.0280101   0.0000000), wk =   0.0555556
        k(   11) = (   0.0505763   0.0560203   0.0000000), wk =   0.0555556
        k(   12) = (   0.0505763  -0.0840304   0.0000000), wk =   0.0555556
        k(   13) = (  -0.0758644   0.0000000   0.0000000), wk =   0.0277778
        k(   14) = (  -0.0758644   0.0280101   0.0000000), wk =   0.0555556
        k(   15) = (  -0.0758644   0.0560203   0.0000000), wk =   0.0555556
        k(   16) = (  -0.0758644  -0.0840304   0.0000000), wk =   0.0277778
        k(   17) = (  -0.0252881   0.0280101   0.0000000), wk =   0.0555556
        k(   18) = (  -0.0252881   0.0560203   0.0000000), wk =   0.0555556
        k(   19) = (  -0.0505763   0.0280101   0.0000000), wk =   0.0555556
        k(   20) = (  -0.0505763   0.0560203   0.0000000), wk =   0.0555556
        k(   21) = (   0.0000000   0.0000000   0.0000000), wk =   0.0277778
        k(   22) = (   0.0000000   0.0280101   0.0000000), wk =   0.0555556
        k(   23) = (   0.0000000   0.0560203   0.0000000), wk =   0.0555556
        k(   24) = (   0.0000000  -0.0840304   0.0000000), wk =   0.0277778
        k(   25) = (   0.0252881   0.0000000   0.0000000), wk =   0.0555556
        k(   26) = (   0.0252881   0.0280101   0.0000000), wk =   0.0555556
        k(   27) = (   0.0252881   0.0560203   0.0000000), wk =   0.0555556
        k(   28) = (   0.0252881  -0.0840304   0.0000000), wk =   0.0555556
        k(   29) = (   0.0505763   0.0000000   0.0000000), wk =   0.0555556
        k(   30) = (   0.0505763   0.0280101   0.0000000), wk =   0.0555556
        k(   31) = (   0.0505763   0.0560203   0.0000000), wk =   0.0555556
        k(   32) = (   0.0505763  -0.0840304   0.0000000), wk =   0.0555556
        k(   33) = (  -0.0758644   0.0000000   0.0000000), wk =   0.0277778
        k(   34) = (  -0.0758644   0.0280101   0.0000000), wk =   0.0555556
        k(   35) = (  -0.0758644   0.0560203   0.0000000), wk =   0.0555556
        k(   36) = (  -0.0758644  -0.0840304   0.0000000), wk =   0.0277778
[...]
     atom:   38    charge:    3.1197    magn:   -0.0000    constr:    0.0000
     atom:   39    charge:    2.0910    magn:    0.0001    constr:    0.0000
     atom:   40    charge:    2.0779    magn:    0.0001    constr:    0.0000
     atom:   41    charge:    2.0869    magn:    0.0000    constr:    0.0000
     atom:   42    charge:    3.1181    magn:   -0.0001    constr:    0.0000
     atom:   43    charge:    2.0840    magn:    0.0002    constr:    0.0000
     atom:   44    charge:    2.0864    magn:    0.0001    constr:    0.0000
     atom:   45    charge:    2.0871    magn:    0.0001    constr:    0.0000
     atom:   46    charge:    3.1176    magn:   -0.0001    constr:    0.0000
     atom:   47    charge:    2.0786    magn:    0.0003    constr:    0.0000
     atom:   48    charge:    2.0863    magn:    0.0002    constr:    0.0000
     atom:   49    charge:    2.0539    magn:   -0.0000    constr:    0.0000
     atom:   50    charge:    1.2580    magn:   -0.0000    constr:    0.0000
     atom:   51    charge:    1.2786    magn:    0.0000    constr:    0.0000

     total energy              =   -3044.97262772 Ry
     Harris-Foulkes estimate   =   -3045.00067324 Ry
     estimated scf accuracy    <       0.17306889 Ry

     total magnetization       =     0.00 Bohr mag/cell
     absolute magnetization    =     0.01 Bohr mag/cell

[...]

     iteration #  4     ecut=    40.42 Ry     beta=0.10
     Davidson diagonalization with overlap
     c_bands:  1 eigenvalues not converged
     ethr =  5.30E-06,  avg # of iterations =  4.8

[...]

     total energy              =   -3044.94618465 Ry
     Harris-Foulkes estimate   =   -3044.94618497 Ry
     estimated scf accuracy    <       0.00000285 Ry

[...]

     iteration # 11     ecut=    40.42 Ry     beta=0.10
     Davidson diagonalization with overlap
     ethr =  7.12E-10,  avg # of iterations =  2.0

     negative rho (up, down):  1.158E-02 1.158E-02

     Magnetic moment per site:
     atom:    1    charge:    3.1250    magn:   -0.0000    constr:    0.0000
     atom:    2    charge:    2.0894    magn:    0.0000    constr:    0.0000
     atom:    3    charge:    3.1196    magn:   -0.0000    constr:    0.0000
     atom:    4    charge:    2.0870    magn:    0.0000    constr:    0.0000
     atom:    5    charge:    3.1170    magn:   -0.0000    constr:    0.0000
     atom:    6    charge:    2.0917    magn:    0.0000    constr:    0.0000
     atom:    7    charge:    3.1184    magn:   -0.0000    constr:    0.0000
     atom:    8    charge:    2.0815    magn:    0.0000    constr:    0.0000
     atom:    9    charge:    3.1250    magn:   -0.0000    constr:    0.0000
     atom:   10    charge:    2.0894    magn:    0.0000    constr:    0.0000
     atom:   11    charge:    3.1196    magn:   -0.0000    constr:    0.0000
     atom:   12    charge:    2.0870    magn:    0.0000    constr:    0.0000
     atom:   13    charge:    3.1148    magn:   -0.0000    constr:    0.0000
     atom:   14    charge:    2.0912    magn:    0.0000    constr:    0.0000
     atom:   15    charge:    3.1193    magn:   -0.0000    constr:    0.0000
     atom:   16    charge:    2.0884    magn:    0.0000    constr:    0.0000
     atom:   17    charge:    2.0624    magn:    0.0000    constr:    0.0000
     atom:   18    charge:    3.1239    magn:   -0.0000    constr:    0.0000
     atom:   19    charge:    2.0878    magn:   -0.0000    constr:    0.0000
     atom:   20    charge:    2.0847    magn:   -0.0000    constr:    0.0000
     atom:   21    charge:    2.0847    magn:   -0.0000    constr:    0.0000
     atom:   22    charge:    3.1197    magn:   -0.0000    constr:    0.0000
     atom:   23    charge:    2.0908    magn:    0.0000    constr:    0.0000
     atom:   24    charge:    2.0777    magn:    0.0000    constr:    0.0000
     atom:   25    charge:    2.0869    magn:    0.0000    constr:    0.0000
     atom:   26    charge:    3.1165    magn:   -0.0000    constr:    0.0000
     atom:   27    charge:    2.0824    magn:    0.0000    constr:    0.0000
     atom:   28    charge:    2.0879    magn:    0.0000    constr:    0.0000
     atom:   29    charge:    2.0878    magn:    0.0000    constr:    0.0000
     atom:   30    charge:    3.1168    magn:   -0.0000    constr:    0.0000
     atom:   31    charge:    2.0815    magn:    0.0000    constr:    0.0000
     atom:   32    charge:    2.0842    magn:    0.0000    constr:    0.0000
     atom:   33    charge:    2.0624    magn:    0.0000    constr:    0.0000
     atom:   34    charge:    3.1239    magn:   -0.0000    constr:    0.0000
     atom:   35    charge:    2.0878    magn:   -0.0000    constr:    0.0000
     atom:   36    charge:    2.0847    magn:   -0.0000    constr:    0.0000
     atom:   37    charge:    2.0847    magn:   -0.0000    constr:    0.0000
     atom:   38    charge:    3.1197    magn:   -0.0000    constr:    0.0000
     atom:   39    charge:    2.0912    magn:    0.0000    constr:    0.0000
     atom:   40    charge:    2.0777    magn:    0.0000    constr:    0.0000
     atom:   41    charge:    2.0869    magn:    0.0000    constr:    0.0000
     atom:   42    charge:    3.1181    magn:   -0.0000    constr:    0.0000
     atom:   43    charge:    2.0838    magn:    0.0000    constr:    0.0000
     atom:   44    charge:    2.0864    magn:    0.0000    constr:    0.0000
     atom:   45    charge:    2.0871    magn:    0.0000    constr:    0.0000
     atom:   46    charge:    3.1171    magn:   -0.0000    constr:    0.0000
     atom:   47    charge:    2.0796    magn:    0.0000    constr:    0.0000
     atom:   48    charge:    2.0836    magn:    0.0000    constr:    0.0000
     atom:   49    charge:    2.0445    magn:    0.0000    constr:    0.0000
     atom:   50    charge:    1.2585    magn:   -0.0000    constr:    0.0000
     atom:   51    charge:    1.2810    magn:    0.0000    constr:    0.0000

     End of self-consistent calculation

 ------ SPIN UP ------------

          k = 0.0000 0.0000 0.0000 ( 34665 PWs)   bands (ev):

   -57.8184 -57.7835 -57.5067 -57.4516 -57.3835 -57.3472 -57.2735 -57.2381
   -57.1755 -57.1402 -57.1114 -57.0761 -56.8738 -56.8028 -56.2807 -56.2454
   -34.2548 -34.0996 -34.0710 -34.0537 -34.0200 -33.9257 -33.8649 -33.8600
   -33.8207 -33.7669 -33.7263 -33.7159 -33.7120 -33.6819 -33.6668 -33.6625
   -33.6431 -33.6337 -33.6135 -33.5519 -33.5200 -33.4558 -33.4548 -33.4341
   -33.4271 -33.4243 -33.3781 -33.3772 -33.3738 -33.3556 -33.3511 -33.3308
   -33.3072 -33.3013 -33.2745 -33.2680 -33.2427 -33.1352 -33.1307 -33.0755
   -33.0300 -32.9286 -32.6994 -32.6319 -32.6058 -32.5034 -32.4117 -32.3034
   -23.9599 -20.7654 -18.1703 -17.9707 -17.7455 -17.6245 -17.4899 -17.4883
   -17.2072 -17.1876 -17.1403 -17.0495 -17.0454 -17.0056 -16.9875 -16.9152
   -16.8652 -16.8568 -16.8395 -16.7946 -16.7326 -16.6852 -16.5685 -16.5448
   -16.5140 -16.5116 -16.4168 -16.3071 -16.2705 -16.2384 -16.0992 -16.0685
   -14.8632 -14.7784  -9.7953  -7.3257  -7.3180  -6.0346  -5.5624  -5.5068
    -5.3560  -5.3470  -5.2900  -4.9902  -4.9333  -4.5824  -4.5795  -4.5436
    -4.5337  -4.4856  -4.3631  -4.2657  -4.2169  -4.1995  -4.1648  -4.1633
    -4.1560  -4.1497  -4.0860  -4.0818  -4.0053  -3.9853  -3.9508  -3.9075
    -3.8760  -3.8047  -3.7674  -3.7442  -3.7145  -3.6393  -3.6176  -3.5422
    -3.5397  -3.5138  -3.4430  -3.3278  -3.1971  -3.1613  -3.0566  -3.0007
    -2.9551  -2.8726  -2.8098  -2.7979  -2.7377  -2.7355  -2.7209  -2.5919
    -2.5556  -2.5020  -2.4269  -2.3922  -2.3666  -2.3442  -2.3158  -2.2769
    -2.2671  -2.2400  -2.2032  -2.1711  -2.1547  -2.0417  -1.9837  -1.8876
    -1.7448  -1.7421  -1.7148  -1.6726  -1.6474  -1.6360  -1.5594  -1.5379
    -1.4376  -1.4279  -1.4024  -1.3934  -1.3731  -1.2782  -1.2271  -1.2175
    -1.1937  -1.1270  -1.0665  -1.0115  -0.9121  -0.7389  -0.7095  -0.7046
    -0.6412  -0.5143  -0.3678  -0.2309  -0.1673  -0.0042   0.1224   0.1375
     1.5235   1.5526   1.8379   1.8750   1.8857   1.9067   2.0754   2.0935
     2.1285   2.2455   2.3643   2.3776   2.4119   2.4317   2.4691   2.4807
     2.5300   2.5684   2.5726   2.6524   2.6759   2.6837   2.7646   2.8148
     2.8721   2.9008   2.9915   3.0003   3.0013   3.0244   3.0703   3.0879
     3.0970   3.1025   3.1103   3.1438   3.2431   3.2648   3.3022   3.3110
     3.3620   3.3881   3.4234   3.5377   3.5396   3.6773   3.8839   3.9859
     3.9949   4.0473   4.0677   4.1872   4.2571   4.4640   4.5378   4.6644
     4.9140   4.9276   5.0167   5.1298   5.2105   5.3940   5.3999   5.4285
     5.5015   5.5845   5.6376   5.6420   5.7204   5.7381   5.7439   5.7486
     5.9263   5.9601   6.0155   6.0246   6.1038   6.1478   6.2018   6.2248
     6.4814   6.6097   6.7695   6.7848   6.8604   6.8854   7.1679   7.2791
     7.9076   7.9927   8.1653   8.3963   8.7063   8.9125   8.9258   8.9540
     9.2010   9.2543   9.2875   9.3508

[...]

          k =-0.0759 0.0000 0.0000 ( 34758 PWs)   bands (ev):

[...]

 ------ SPIN DOWN ----------

[...]

          k = 0.0506-0.0840 0.0000 ( 34628 PWs)   bands (ev):

[...]

          k =-0.0506 0.0560 0.0000 ( 34596 PWs)   bands (ev):

   -57.8097 -57.7923 -57.5019 -57.4565 -57.3751 -57.3557 -57.2646 -57.2470
   -57.1669 -57.1490 -57.1027 -57.0850 -56.8701 -56.8069 -56.2721 -56.2544
   -34.1605 -34.0923 -34.0779 -33.9950 -33.9652 -33.9575 -33.9490 -33.7984
   -33.7698 -33.7592 -33.7443 -33.7074 -33.6986 -33.6868 -33.6729 -33.6697
   -33.5855 -33.5731 -33.5693 -33.5317 -33.5308 -33.5108 -33.4777 -33.4584
   -33.4472 -33.4336 -33.4020 -33.3761 -33.3743 -33.3629 -33.3550 -33.3512
   -33.3343 -33.3214 -33.2976 -33.2939 -33.2580 -33.1358 -33.1242 -33.0784
   -33.0479 -33.0246 -32.6273 -32.6119 -32.6029 -32.4809 -32.4350 -32.4051
   -23.9597 -20.7647 -17.8661 -17.6225 -17.4453 -17.4240 -17.4064 -17.3344
   -17.2962 -17.2614 -17.1907 -17.1587 -17.0864 -17.0673 -17.0011 -16.9806
   -16.9784 -16.9095 -16.8999 -16.8415 -16.7952 -16.7686 -16.7016 -16.6559
   -16.5565 -16.4508 -16.4087 -16.3087 -16.3085 -16.2780 -16.2382 -16.1731
   -14.8885 -14.8523  -9.7923  -7.3306  -7.3166  -6.0302  -5.2081  -4.7781
    -4.7264  -4.7163  -4.6801  -4.6423  -4.6318  -4.5951  -4.4882  -4.4718
    -4.4466  -4.4319  -4.3404  -4.2859  -4.2714  -4.2648  -4.2227  -4.2022
    -4.1797  -4.1655  -4.1521  -4.1269  -4.0724  -4.0352  -4.0238  -3.9945
    -3.9391  -3.8793  -3.8137  -3.7786  -3.6748  -3.6471  -3.5048  -3.4777
    -3.4588  -3.3920  -3.3727  -3.1941  -3.1097  -3.0701  -3.0205  -2.9794
    -2.9526  -2.9047  -2.8840  -2.8501  -2.8008  -2.7596  -2.7064  -2.7005
    -2.6233  -2.6119  -2.5815  -2.5053  -2.4767  -2.4571  -2.4398  -2.4151
    -2.3915  -2.3478  -2.2800  -2.2684  -2.2434  -2.2190  -2.1686  -2.1526
    -2.0838  -2.0461  -2.0137  -1.9704  -1.9271  -1.8479  -1.7779  -1.7636
    -1.6953  -1.5958  -1.5207  -1.4741  -1.4410  -1.3636  -1.3256  -1.2174
    -1.1681  -1.1294  -1.0859  -1.0195  -0.9790  -0.9161  -0.9029  -0.8290
    -0.7935  -0.7786  -0.6518  -0.4592  -0.0493  -0.0122   0.0012   0.0573
     1.7451   1.9437   1.9621   2.0253   2.0807   2.1196   2.1304   2.1838
     2.2306   2.2767   2.3925   2.4294   2.4370   2.4646   2.4829   2.5087
     2.5968   2.6107   2.6391   2.6560   2.6750   2.7290   2.7994   2.8296
     2.8995   2.9133   2.9524   2.9833   3.0322   3.0710   3.1961   3.2200
     3.2344   3.2739   3.3125   3.3337   3.3759   3.3949   3.4066   3.4716
     3.5437   3.5759   3.6162   3.6962   3.7495   3.7770   3.7875   3.8040
     3.8480   3.9773   4.0295   4.1561   4.2168   4.4628   4.6552   4.6839
     4.7569   4.7599   4.9031   5.0106   5.0829   5.1474   5.2177   5.2436
     5.3142   5.4727   5.5698   5.6394   5.6918   5.7479   5.8366   5.9775
     6.0172   6.1210   6.1700   6.2111   6.2622   6.3080   6.4639   6.4829
     6.5518   6.5932   6.6162   6.6867   6.7127   6.8514   6.9492   7.3000
     7.3325   7.6291   7.7518   8.0158   8.0807   8.1723   8.5458   8.6514
     8.7898   8.9036   9.1402   9.3584

     the Fermi energy is     0.8712 ev

!    total energy              =   -3044.94618829 Ry
     Harris-Foulkes estimate   =   -3044.94618493 Ry
     estimated scf accuracy    <       0.00000042 Ry

     The total energy is the sum of the following terms:

     one-electron contribution =  -40866.36613813 Ry
     hartree contribution      =   20505.61690503 Ry
     xc contribution           =    -557.12971731 Ry
     ewald contribution        =   17872.93296711 Ry
     smearing contrib. (-TS)   =      -0.00020499 Ry

     total magnetization       =     0.00 Bohr mag/cell
     absolute magnetization    =     0.00 Bohr mag/cell

     convergence has been achieved in  11 iterations

     Forces acting on atoms (Ry/au):

     negative rho (up, down):  1.158E-02 1.158E-02
     atom    1 type  1   force =    -0.00006009    0.00031427   -0.13584911
     atom    2 type  2   force =     0.00011793   -0.00002847    0.07522086
     atom    3 type  1   force =     0.00128924    0.00109675   -0.05972424
     atom    4 type  2   force =     0.00657997   -0.00004912    0.00974966
     atom    5 type  1   force =    -0.00130168   -0.00014223    0.00007962
     atom    6 type  2   force =    -0.00163733   -0.00331566   -0.00901135
     atom    7 type  1   force =     0.00966811    0.00664041   -0.01473006
     atom    8 type  2   force =     0.00069730   -0.00010423    0.00030224
     atom    9 type  1   force =     0.00011316    0.00036305   -0.13591909
     atom   10 type  2   force =     0.00017537   -0.00005539    0.07515614
     atom   11 type  1   force =     0.00129898   -0.00083815   -0.05984852
     atom   12 type  2   force =     0.00603632   -0.00009735    0.00868068
     atom   13 type  1   force =     0.00009897   -0.00013040   -0.00025033
     atom   14 type  2   force =    -0.00185922    0.00278589   -0.00906123
     atom   15 type  1   force =     0.00982041   -0.00640606   -0.01504579
     atom   16 type  2   force =     0.00608853    0.00008099    0.00915100
     atom   17 type  2   force =    -0.00006053   -0.00003335    0.08004642
     atom   18 type  1   force =    -0.00004152    0.00025469    0.11925089
     atom   19 type  2   force =     0.00038225    0.00021279   -0.06812487
     atom   20 type  2   force =    -0.06269600    0.00006167   -0.03203004
     atom   21 type  2   force =     0.06271662    0.00017131   -0.03252377
     atom   22 type  1   force =    -0.00047834   -0.00009873    0.06436929
     atom   23 type  2   force =     0.00016170    0.00062233   -0.00265141
     atom   24 type  2   force =     0.00046099    0.00008134   -0.02236038
     atom   25 type  2   force =    -0.00647723   -0.00024787    0.00828851
     atom   26 type  1   force =    -0.00006020   -0.00004092    0.00268904
     atom   27 type  2   force =     0.00234189   -0.00123367   -0.00244711
     atom   28 type  2   force =    -0.00006550   -0.00000340   -0.00141576
     atom   29 type  2   force =     0.00008516   -0.00004933   -0.00048928
     atom   30 type  1   force =     0.00563430    0.00037365   -0.00017064
     atom   31 type  2   force =    -0.00207745    0.00163098    0.00083274
     atom   32 type  2   force =     0.00155265   -0.00009939    0.00157341
     atom   33 type  2   force =     0.00000640    0.00019585    0.08011448
     atom   34 type  1   force =    -0.00006412    0.00026365    0.11926177
     atom   35 type  2   force =     0.00035303    0.00030956   -0.06806520
     atom   36 type  2   force =    -0.06268234    0.00012567   -0.03219974
     atom   37 type  2   force =     0.06284876    0.00018565   -0.03198673
     atom   38 type  1   force =    -0.00069202    0.00000805    0.06426348
     atom   39 type  2   force =     0.00020875   -0.00078151   -0.00262502
     atom   40 type  2   force =     0.00058305   -0.00229783   -0.02250832
     atom   41 type  2   force =    -0.00624541   -0.00030167    0.00772174
     atom   42 type  1   force =    -0.00005193   -0.00006075    0.00264641
     atom   43 type  2   force =     0.00238072    0.00131364   -0.00249613
     atom   44 type  2   force =     0.00040355   -0.00012532   -0.00064433
     atom   45 type  2   force =    -0.00023213   -0.00007130   -0.00084836
     atom   46 type  1   force =    -0.01724441    0.00044056   -0.00432899
     atom   47 type  2   force =    -0.00214427   -0.00145787    0.00082621
     atom   48 type  2   force =     0.00045470   -0.00041505   -0.02972070
     atom   49 type  2   force =    -0.04422151   -0.00050202    0.19363582
     atom   50 type  3   force =    -0.02928048    0.00182166   -0.04031223
     atom   51 type  3   force =     0.05711490   -0.00036737   -0.08647170

     Total force =     0.436560     Total SCF correction =     0.001946
 !ASE

     Writing output data file calc.save

     General routines

     Parallel routines

   This run was terminated on:   9:43:20  10Mar2018

   JOB DONE.