     Program PWSCF v.5.1rc2 (svn rev. ) starts on 13Feb2018 at  4: 8:31

     Current dimensions of program PWSCF are:
     Max number of different atomic species (ntypx) = 10
     Max number of k-points (npk) =  40000
     Max angular momentum in pseudopotentials (lmaxx) =  3

     IMPORTANT: XC functional enforced from input :
     Exchange-correlation      = BEEF ( 1  4 27 13 2)
     Any further DFT definition will be discarded
     Please, verify this is what you really want

     Subspace diagonalization in iterative solution of the eigenvalue problem:
     a serial algorithm will be used

     Generating pointlists ...
     new r_m :   0.4125 (alat units)  0.7795 (a.u.) for type    1
     new r_m :   0.3995 (alat units)  0.7549 (a.u.) for type    2
     new r_m :   0.4125 (alat units)  0.7795 (a.u.) for type    3
     new r_m :   0.3995 (alat units)  0.7549 (a.u.) for type    4

     bravais-lattice index     =            0
     lattice parameter (alat)  =       1.8897  a.u.
     unit-cell volume          =    7990.9933 (a.u.)^3
     number of atoms/cell      =           54
     number of atomic types    =            4
     number of electrons       =       398.00
     number of Kohn-Sham states=          299
     kinetic-energy cutoff     =      40.4243  Ry
     charge density cutoff     =     404.2426  Ry
     convergence threshold     =      7.3E-07
     mixing beta               =       0.1000
     number of iterations used =           10  plain     mixing
     Exchange-correlation      = BEEF ( 1  4 27 13 2)
     nstep                     =           50

     celldm(1)=   1.889726  celldm(2)=   0.000000  celldm(3)=   0.000000
     celldm(4)=   0.000000  celldm(5)=   0.000000  celldm(6)=   0.000000

     crystal axes: (cart. coord. in units of alat)
               a(1) = (   6.590708   0.000000   0.000000 )
               a(2) = (   0.000000   5.950229   0.000000 )
               a(3) = (   0.000000   0.000000  30.195235 )

     reciprocal axes: (cart. coord. in units 2 pi/alat)
               b(1) = (  0.151729  0.000000  0.000000 )
               b(2) = (  0.000000  0.168061  0.000000 )
               b(3) = (  0.000000  0.000000  0.033118 )

     PseudoPot. # 1 for Ti read from file:
     /home/alatimer/bin/psp/esp_psp_w_gbrvRu/Ti.UPF
     MD5 check sum: 8e4df49b7f0d34bbd5052bf3f5ea0213
     Pseudo is Ultrasoft, Zval = 12.0
     Generated by new atomic code, or converted to UPF format
     Using radial grid of  851 points,  6 beta functions with:
                l(1) =   0
                l(2) =   0
                l(3) =   1
                l(4) =   1
                l(5) =   2
                l(6) =   2
     Q(r) pseudized with  8 coefficients,  rinner =    1.000   1.000   1.000
                                                       1.000   1.000

     PseudoPot. # 2 for  O read from file:
     /home/alatimer/bin/psp/esp_psp_w_gbrvRu/O.UPF
     MD5 check sum: e057bbcf3229fb5d8c36c0c92f9568b4
     Pseudo is Ultrasoft + core correction, Zval =  6.0
     Generated using "atomic" code by A. Dal Corso  v.5.0.2 svn rev. 9415
     Using radial grid of 1095 points,  4 beta functions with:
                l(1) =   0
                l(2) =   0
                l(3) =   1
                l(4) =   1
     Q(r) pseudized with 0 coefficients

     PseudoPot. # 3 for  C read from file:
     /home/alatimer/bin/psp/esp_psp_w_gbrvRu/C.UPF
     MD5 check sum: ab446d787031eba755f1d5ee46644bb0
     Pseudo is Ultrasoft + core correction, Zval =  4.0
     Generated using "atomic" code by A. Dal Corso  v.5.0.2 svn rev. 9415
     Using radial grid of 1073 points,  4 beta functions with:
                l(1) =   0
                l(2) =   0
                l(3) =   1
                l(4) =   1
     Q(r) pseudized with 0 coefficients

     PseudoPot. # 4 for  H read from file:
     /home/alatimer/bin/psp/esp_psp_w_gbrvRu/H.UPF
     MD5 check sum: bd57da0722753ddfd9833a65b40bb853
     Pseudo is Ultrasoft, Zval =  1.0
     Generated using "atomic" code by A. Dal Corso  v.5.0.2 svn rev. 9415
     Using radial grid of  929 points,  2 beta functions with:
                l(1) =   0
                l(2) =   0
     Q(r) pseudized with 0 coefficients

     vdW kernel table read from file vdW_kernel_table
     MD5 check sum: 095c7af220d748ca6e76c0b4c6cfb241

     atomic species   valence    mass     pseudopotential
        Ti1           12.00    47.88000     Ti( 1.00)
        O1             6.00    15.99940      O( 1.00)
        C1             4.00    12.01100      C( 1.00)
        H1             1.00     1.00794      H( 1.00)

     Starting magnetic structure
     atomic species   magnetization
        Ti1          0.250
        O1           0.500
        C1           0.750
        H1           0.000

     No symmetry found

   Cartesian axes

     site n.     atom                  positions (alat units)
         1           Ti1 tau(   1) = (   1.6476770   0.7437786   2.6545865  )
         2           O1  tau(   2) = (   1.6476770   2.2313359   3.9361215  )
         3           Ti1 tau(   3) = (   1.6476770   2.2313359   5.9499405  )
         4           O1  tau(   4) = (   0.3661420   0.7437786   5.9499405  )
         5           Ti1 tau(   5) = (   1.7592931   0.7557636   9.1813031  )
         6           O1  tau(   6) = (   1.6162490   2.2572048  10.5951269  )
         7           Ti1 tau(   7) = (   1.5595004   2.2680265  12.4668274  )
         8           O1  tau(   8) = (   0.3709531   0.7738127  12.6996540  )
         9           Ti1 tau(   9) = (   1.6476770   3.7188931   2.6545865  )
        10           O1  tau(  10) = (   1.6476770   5.2064503   3.9361215  )
        11           Ti1 tau(  11) = (   1.6476770   5.2064503   5.9499405  )
        12           O1  tau(  12) = (   0.3661420   3.7188931   5.9499405  )
        13           Ti1 tau(  13) = (   1.7607536   3.7112867   9.1949733  )
        14           O1  tau(  14) = (   1.6133076   5.2250699  10.5465640  )
        15           Ti1 tau(  15) = (   1.6492307   5.2431137  12.3448001  )
        16           O1  tau(  16) = (   0.3719744   3.7598389  12.7007434  )
        17           O1  tau(  17) = (   1.6476770   2.2313359   1.3730516  )
        18           Ti1 tau(  18) = (   4.9430310   2.2313359   2.6545865  )
        19           O1  tau(  19) = (   4.9430310   2.2313359   4.6684056  )
        20           O1  tau(  20) = (   6.2245660   0.7437786   2.6545865  )
        21           O1  tau(  21) = (   3.6614961   0.7437786   2.6545865  )
        22           Ti1 tau(  22) = (   4.9430310   0.7437786   5.9499405  )
        23           O1  tau(  23) = (   1.6387103   2.2391978   8.0037664  )
        24           O1  tau(  24) = (   4.9430310   2.2313359   7.2314755  )
        25           O1  tau(  25) = (   2.9292120   0.7437786   5.9499405  )
        26           Ti1 tau(  26) = (   5.0158092   2.2383949   9.3973727  )
        27           O1  tau(  27) = (   4.9391445   2.2276729  11.2675731  )
        28           O1  tau(  28) = (   6.2094020   0.7514556   9.2742047  )
        29           O1  tau(  29) = (   3.6131301   0.7515640   9.2682932  )
        30           Ti1 tau(  30) = (   4.8940083   0.8207741  12.7348365  )
        31           O1  tau(  31) = (   4.8487174   2.2703822  13.8475395  )
        32           O1  tau(  32) = (   2.8766274   0.7418004  12.6316555  )
        33           O1  tau(  33) = (   1.6476770   5.2064503   1.3730516  )
        34           Ti1 tau(  34) = (   4.9430310   5.2064503   2.6545865  )
        35           O1  tau(  35) = (   4.9430310   5.2064503   4.6684056  )
        36           O1  tau(  36) = (   6.2245660   3.7188931   2.6545865  )
        37           O1  tau(  37) = (   3.6614961   3.7188931   2.6545865  )
        38           Ti1 tau(  38) = (   4.9430310   3.7188931   5.9499405  )
        39           O1  tau(  39) = (   1.6418458   5.2133935   8.0066417  )
        40           O1  tau(  40) = (   4.9430310   5.2064503   7.2314755  )
        41           O1  tau(  41) = (   2.9292120   3.7188931   5.9499405  )
        42           Ti1 tau(  42) = (   5.0218241   5.2139137   9.3870600  )
        43           O1  tau(  43) = (   4.9399496   5.2040061  11.2598200  )
        44           O1  tau(  44) = (   6.2073000   3.7245411   9.2731052  )
        45           O1  tau(  45) = (   3.6137513   3.7232133   9.2682466  )
        46           Ti1 tau(  46) = (   4.8936935   3.8094630  12.7397413  )
        47           O1  tau(  47) = (   4.9051259   5.2510468  13.8339921  )
        48           O1  tau(  48) = (   2.8743370   3.7938830  12.6403791  )
        49           C1  tau(  49) = (   1.0587210   2.2268971  15.9066084  )
        50           O1  tau(  50) = (   1.8917182   2.2355032  14.7378010  )
        51           H1  tau(  51) = (   0.0310076   2.2200215  15.5603933  )
        52           H1  tau(  52) = (   2.8355400   2.2288152  14.9543747  )
        53           H1  tau(  53) = (   1.2478062   1.3626534  16.5039879  )
        54           H1  tau(  54) = (   1.2341453   3.1195140  16.5098874  )

     number of k points=    40  Fermi-Dirac smearing, width (Ry)=  0.0073
                       cart. coord. in units 2pi/alat
        k(    1) = (   0.0000000   0.0000000   0.0000000), wk =   0.0277778
        k(    2) = (   0.0000000   0.0280101   0.0000000), wk =   0.0555556
        k(    3) = (   0.0000000   0.0560203   0.0000000), wk =   0.0555556
        k(    4) = (   0.0000000  -0.0840304   0.0000000), wk =   0.0277778
        k(    5) = (   0.0252881   0.0000000   0.0000000), wk =   0.0555556
        k(    6) = (   0.0252881   0.0280101   0.0000000), wk =   0.0555556
        k(    7) = (   0.0252881   0.0560203   0.0000000), wk =   0.0555556
        k(    8) = (   0.0252881  -0.0840304   0.0000000), wk =   0.0555556
        k(    9) = (   0.0505763   0.0000000   0.0000000), wk =   0.0555556
        k(   10) = (   0.0505763   0.0280101   0.0000000), wk =   0.0555556
        k(   11) = (   0.0505763   0.0560203   0.0000000), wk =   0.0555556
        k(   12) = (   0.0505763  -0.0840304   0.0000000), wk =   0.0555556
        k(   13) = (  -0.0758644   0.0000000   0.0000000), wk =   0.0277778
        k(   14) = (  -0.0758644   0.0280101   0.0000000), wk =   0.0555556
        k(   15) = (  -0.0758644   0.0560203   0.0000000), wk =   0.0555556
        k(   16) = (  -0.0758644  -0.0840304   0.0000000), wk =   0.0277778
        k(   17) = (  -0.0252881   0.0280101   0.0000000), wk =   0.0555556
        k(   18) = (  -0.0252881   0.0560203   0.0000000), wk =   0.0555556
        k(   19) = (  -0.0505763   0.0280101   0.0000000), wk =   0.0555556
        k(   20) = (  -0.0505763   0.0560203   0.0000000), wk =   0.0555556
        k(   21) = (   0.0000000   0.0000000   0.0000000), wk =   0.0277778
        k(   22) = (   0.0000000   0.0280101   0.0000000), wk =   0.0555556
        k(   23) = (   0.0000000   0.0560203   0.0000000), wk =   0.0555556
        k(   24) = (   0.0000000  -0.0840304   0.0000000), wk =   0.0277778
        k(   25) = (   0.0252881   0.0000000   0.0000000), wk =   0.0555556
        k(   26) = (   0.0252881   0.0280101   0.0000000), wk =   0.0555556
[...]
     atom:   44    charge:    1.9517    magn:   -0.0001    constr:    0.0000
     atom:   45    charge:    1.9468    magn:   -0.0001    constr:    0.0000
     atom:   46    charge:    3.1165    magn:    0.0000    constr:    0.0000
     atom:   47    charge:    1.9431    magn:   -0.0000    constr:    0.0000
     atom:   48    charge:    1.9444    magn:   -0.0001    constr:    0.0000
     atom:   49    charge:    0.6594    magn:   -0.0001    constr:    0.0000
     atom:   50    charge:    1.9577    magn:   -0.0001    constr:    0.0000
     atom:   51    charge:    0.4021    magn:    0.0000    constr:    0.0000
     atom:   52    charge:    0.4006    magn:    0.0000    constr:    0.0000
     atom:   53    charge:    0.4156    magn:    0.0000    constr:    0.0000
     atom:   54    charge:    0.4039    magn:    0.0000    constr:    0.0000

     total energy              =   -3021.41983114 Ry
     Harris-Foulkes estimate   =   -3021.42008700 Ry
     estimated scf accuracy    <       0.00241069 Ry

     total magnetization       =     0.00 Bohr mag/cell
     absolute magnetization    =     0.01 Bohr mag/cell

[...]

     total energy              =   -3021.41945691 Ry
     Harris-Foulkes estimate   =   -3021.41945745 Ry
     estimated scf accuracy    <       0.00000164 Ry

[...]

     iteration #  8     ecut=    40.42 Ry     beta=0.10
     Davidson diagonalization with overlap
     ethr =  4.11E-10,  avg # of iterations =  4.0

     negative rho (up, down):  1.210E-02 1.210E-02

     Magnetic moment per site:
     atom:    1    charge:    3.1250    magn:   -0.0000    constr:    0.0000
     atom:    2    charge:    1.9452    magn:    0.0000    constr:    0.0000
     atom:    3    charge:    3.1198    magn:    0.0000    constr:    0.0000
     atom:    4    charge:    1.9504    magn:   -0.0000    constr:    0.0000
     atom:    5    charge:    3.1166    magn:    0.0000    constr:    0.0000
     atom:    6    charge:    1.9477    magn:   -0.0000    constr:    0.0000
     atom:    7    charge:    3.1157    magn:    0.0000    constr:    0.0000
     atom:    8    charge:    1.9452    magn:   -0.0000    constr:    0.0000
     atom:    9    charge:    3.1250    magn:   -0.0000    constr:    0.0000
     atom:   10    charge:    1.9452    magn:    0.0000    constr:    0.0000
     atom:   11    charge:    3.1197    magn:    0.0000    constr:    0.0000
     atom:   12    charge:    1.9504    magn:   -0.0000    constr:    0.0000
     atom:   13    charge:    3.1158    magn:    0.0000    constr:    0.0000
     atom:   14    charge:    1.9587    magn:   -0.0000    constr:    0.0000
     atom:   15    charge:    3.1188    magn:    0.0000    constr:    0.0000
     atom:   16    charge:    1.9445    magn:   -0.0000    constr:    0.0000
     atom:   17    charge:    1.9184    magn:    0.0001    constr:    0.0000
     atom:   18    charge:    3.1239    magn:   -0.0000    constr:    0.0000
     atom:   19    charge:    1.9408    magn:   -0.0000    constr:    0.0000
     atom:   20    charge:    1.9471    magn:    0.0000    constr:    0.0000
     atom:   21    charge:    1.9471    magn:    0.0000    constr:    0.0000
     atom:   22    charge:    3.1196    magn:    0.0000    constr:    0.0000
     atom:   23    charge:    1.9566    magn:   -0.0000    constr:    0.0000
     atom:   24    charge:    1.9379    magn:   -0.0000    constr:    0.0000
     atom:   25    charge:    1.9505    magn:   -0.0000    constr:    0.0000
     atom:   26    charge:    3.1145    magn:    0.0000    constr:    0.0000
     atom:   27    charge:    1.9398    magn:   -0.0000    constr:    0.0000
     atom:   28    charge:    1.9517    magn:   -0.0000    constr:    0.0000
     atom:   29    charge:    1.9476    magn:   -0.0000    constr:    0.0000
     atom:   30    charge:    3.1167    magn:    0.0000    constr:    0.0000
     atom:   31    charge:    1.9447    magn:   -0.0000    constr:    0.0000
     atom:   32    charge:    1.9440    magn:   -0.0000    constr:    0.0000
     atom:   33    charge:    1.9184    magn:    0.0001    constr:    0.0000
     atom:   34    charge:    3.1239    magn:   -0.0000    constr:    0.0000
     atom:   35    charge:    1.9408    magn:   -0.0000    constr:    0.0000
     atom:   36    charge:    1.9471    magn:    0.0000    constr:    0.0000
     atom:   37    charge:    1.9471    magn:    0.0000    constr:    0.0000
     atom:   38    charge:    3.1196    magn:    0.0000    constr:    0.0000
     atom:   39    charge:    1.9550    magn:   -0.0000    constr:    0.0000
     atom:   40    charge:    1.9383    magn:   -0.0000    constr:    0.0000
     atom:   41    charge:    1.9505    magn:   -0.0000    constr:    0.0000
     atom:   42    charge:    3.1141    magn:    0.0000    constr:    0.0000
     atom:   43    charge:    1.9413    magn:   -0.0000    constr:    0.0000
     atom:   44    charge:    1.9518    magn:   -0.0000    constr:    0.0000
     atom:   45    charge:    1.9468    magn:   -0.0000    constr:    0.0000
     atom:   46    charge:    3.1165    magn:    0.0000    constr:    0.0000
     atom:   47    charge:    1.9431    magn:   -0.0000    constr:    0.0000
     atom:   48    charge:    1.9444    magn:   -0.0000    constr:    0.0000
     atom:   49    charge:    0.6616    magn:   -0.0000    constr:    0.0000
     atom:   50    charge:    1.9579    magn:   -0.0000    constr:    0.0000
     atom:   51    charge:    0.4022    magn:    0.0000    constr:    0.0000
     atom:   52    charge:    0.4006    magn:    0.0000    constr:    0.0000
     atom:   53    charge:    0.4174    magn:    0.0000    constr:    0.0000
     atom:   54    charge:    0.4042    magn:    0.0000    constr:    0.0000

     End of self-consistent calculation

 ------ SPIN UP ------------

          k = 0.0000 0.0000 0.0000 ( 34665 PWs)   bands (ev):

   -57.6966 -57.6616 -57.3150 -57.2787 -57.2296 -57.1074 -57.0709 -57.0700
   -57.0479 -57.0352 -56.9872 -56.9517 -56.7274 -56.6900 -56.1472 -56.1119
   -34.1327 -33.9788 -33.9503 -33.8976 -33.8672 -33.8033 -33.7428 -33.6503
   -33.6156 -33.6028 -33.5653 -33.5379 -33.5158 -33.5049 -33.4869 -33.4825
   -33.4617 -33.4516 -33.4282 -33.3964 -33.3217 -33.2896 -33.2694 -33.2601
   -33.2519 -33.2513 -33.2407 -33.2400 -33.2346 -33.2271 -33.2263 -33.2101
   -33.1775 -33.1772 -33.1722 -33.1380 -33.1154 -32.9935 -32.9753 -32.9544
   -32.9050 -32.8022 -32.5650 -32.4995 -32.4735 -32.3692 -32.2776 -32.1692
   -20.2959 -18.0099 -17.8391 -17.5543 -17.4591 -17.3700 -17.2492 -17.0751
   -17.0642 -16.9719 -16.9364 -16.8820 -16.7812 -16.7750 -16.7262 -16.7049
   -16.7003 -16.6598 -16.6090 -16.6015 -16.5335 -16.4128 -16.3998 -16.3959
   -16.3183 -16.2653 -16.1920 -16.1649 -16.1476 -15.9763 -15.9268 -14.7317
   -14.6480 -11.5080  -7.2794  -5.4683  -5.3929  -5.3103  -5.2174  -5.2024
    -5.1430  -5.1235  -4.8367  -4.8151  -4.4696  -4.4402  -4.3568  -4.3528
    -4.3194  -4.2304  -4.0874  -4.0589  -4.0532  -4.0153  -3.9966  -3.9887
    -3.9584  -3.9495  -3.9486  -3.8376  -3.7855  -3.7626  -3.7348  -3.7175
    -3.6298  -3.6143  -3.5843  -3.5751  -3.5174  -3.5058  -3.4064  -3.3931
    -3.3744  -3.2792  -3.2370  -3.1920  -3.0111  -2.9330  -2.8766  -2.8340
    -2.6928  -2.6043  -2.5875  -2.5779  -2.5730  -2.5657  -2.4291  -2.4118
    -2.3337  -2.2667  -2.2449  -2.2023  -2.1976  -2.1640  -2.1360  -2.0903
    -2.0453  -2.0266  -2.0176  -1.8843  -1.8637  -1.7602  -1.7334  -1.6219
    -1.5402  -1.5387  -1.4877  -1.4781  -1.4606  -1.4210  -1.3207  -1.3069
    -1.2998  -1.2772  -1.2402  -1.1329  -1.0841  -1.0793  -1.0646  -1.0169
    -0.9517  -0.9128  -0.8176  -0.7621  -0.6079  -0.5849  -0.5670  -0.4762
    -0.3736  -0.2401  -0.0826  -0.0238   0.1335   0.2503   0.2640   1.6449
     1.6774   1.9881   2.0043   2.0682   2.0983   2.2074   2.2466   2.2898
     2.4328   2.4999   2.5285   2.5330   2.5445   2.6337   2.6516   2.6597
     2.7180   2.8023   2.8302   2.8419   2.9140   3.0026   3.0363   3.1022
     3.1075   3.1172   3.1636   3.2047   3.2110   3.2288   3.2426   3.2542
     3.2629   3.2916   3.4002   3.4339   3.4596   3.4693   3.5306   3.5885
     3.6562   3.6977   3.8107   3.9857   4.0196   4.0950   4.1822   4.3228
     4.3417   4.3941   4.5911   4.6020   4.8137   4.8417   5.0897   5.1697
     5.2481   5.3329   5.4800   5.5201   5.5301   5.5964   5.6803   5.7150
     5.8024   5.8680   5.8793   5.8889   5.9574   6.0395   6.0503   6.0740
     6.1467   6.2318   6.2465   6.2999   6.3807   6.5836   6.6393   6.7573
     6.8446   7.0179   7.0458   7.1711   7.3046   7.5841   7.9140   8.2550
     8.3578   8.6730   8.7963   8.8703   8.9426   9.0090   9.1747   9.2601
     9.3534   9.3811   9.5294

[...]

          k =-0.0759 0.0000 0.0000 ( 34758 PWs)   bands (ev):

[...]

 ------ SPIN DOWN ----------

[...]

          k = 0.0506-0.0840 0.0000 ( 34628 PWs)   bands (ev):

[...]

          k =-0.0506 0.0560 0.0000 ( 34596 PWs)   bands (ev):

   -57.6879 -57.6705 -57.3060 -57.2876 -57.2282 -57.0988 -57.0790 -57.0617
   -57.0491 -57.0440 -56.9784 -56.9606 -56.7183 -56.6991 -56.1387 -56.1210
   -34.0384 -33.9715 -33.9572 -33.8727 -33.8431 -33.8267 -33.7704 -33.5931
   -33.5716 -33.5692 -33.5325 -33.5185 -33.5123 -33.5083 -33.4738 -33.4709
   -33.4502 -33.4233 -33.4010 -33.3510 -33.3154 -33.3144 -33.2985 -33.2963
   -33.2840 -33.2740 -33.2651 -33.2573 -33.2511 -33.2504 -33.2450 -33.2370
   -33.2074 -33.1976 -33.1677 -33.1616 -33.1226 -32.9846 -32.9745 -32.9587
   -32.9230 -32.8996 -32.4950 -32.4796 -32.4686 -32.3468 -32.3009 -32.2709
   -20.2950 -17.7031 -17.4981 -17.2883 -17.2369 -17.1947 -17.1712 -17.1591
   -17.0868 -17.0345 -17.0032 -16.9108 -16.8537 -16.8464 -16.8415 -16.8035
   -16.7736 -16.7187 -16.6596 -16.6192 -16.6096 -16.5482 -16.5099 -16.3957
   -16.3403 -16.2612 -16.2234 -16.1901 -16.1540 -16.1102 -16.0352 -14.7577
   -14.7221 -11.5032  -7.2695  -5.4206  -5.2304  -5.0190  -4.6567  -4.6145
    -4.5126  -4.4965  -4.4811  -4.4538  -4.4292  -4.3647  -4.3222  -4.2991
    -4.2232  -4.2033  -4.1439  -4.1294  -4.0798  -4.0643  -4.0435  -4.0336
    -4.0114  -3.9934  -3.9659  -3.9118  -3.8914  -3.8857  -3.8192  -3.7847
    -3.7280  -3.6580  -3.6279  -3.5203  -3.4872  -3.3802  -3.3262  -3.2590
    -3.2552  -3.2430  -3.1470  -3.0137  -2.9314  -2.9020  -2.8487  -2.8281
    -2.7539  -2.7242  -2.6823  -2.6068  -2.5894  -2.5649  -2.5257  -2.4873
    -2.4258  -2.4033  -2.3632  -2.3267  -2.3139  -2.2977  -2.2528  -2.1753
    -2.1500  -2.1187  -2.1117  -2.0750  -2.0446  -1.9992  -1.9812  -1.8990
    -1.8886  -1.8489  -1.8298  -1.7220  -1.6349  -1.6033  -1.5701  -1.4758
    -1.4057  -1.3720  -1.3045  -1.2477  -1.2036  -1.1067  -1.0712  -1.0151
    -1.0000  -0.9340  -0.8501  -0.8166  -0.7673  -0.7533  -0.6895  -0.6544
    -0.6492  -0.5147  -0.3218   0.0804   0.1145   0.1325   0.1961   1.8693
     2.0792   2.1686   2.2025   2.2238   2.2462   2.3013   2.3511   2.3963
     2.4063   2.5401   2.5732   2.5822   2.6102   2.6315   2.6866   2.7576
     2.7848   2.8073   2.8419   2.8841   2.9665   3.0076   3.0313   3.0653
     3.1003   3.1393   3.1707   3.2598   3.3385   3.3703   3.4001   3.4441
     3.4819   3.5029   3.5250   3.5457   3.6179   3.6506   3.7147   3.7470
     3.7832   3.8548   3.8834   3.9219   3.9279   3.9575   4.1142   4.1773
     4.2919   4.4774   4.7278   4.8094   4.8198   4.8991   4.9456   5.0950
     5.1686   5.2349   5.2744   5.3317   5.3752   5.4383   5.4987   5.6291
     5.7840   5.8342   5.8850   5.9554   6.0443   6.1272   6.2196   6.2612
     6.2897   6.3506   6.4193   6.4533   6.5056   6.5803   6.6540   6.7188
     6.7333   6.8269   6.8516   6.9870   7.0586   7.4123   7.4329   7.5753
     7.7467   7.9406   8.0736   8.3872   8.5772   8.6109   8.7412   9.0061
     9.2251   9.3245   9.4576

     the Fermi energy is     0.9995 ev

!    total energy              =   -3021.41945699 Ry
     Harris-Foulkes estimate   =   -3021.41945727 Ry
     estimated scf accuracy    <       0.00000038 Ry

     The total energy is the sum of the following terms:

     one-electron contribution =  -41241.67604260 Ry
     hartree contribution      =   20695.12892577 Ry
     xc contribution           =    -553.70917357 Ry
     ewald contribution        =   18078.83704440 Ry
     smearing contrib. (-TS)   =      -0.00021100 Ry

     total magnetization       =     0.00 Bohr mag/cell
     absolute magnetization    =     0.00 Bohr mag/cell

     convergence has been achieved in   8 iterations

     Forces acting on atoms (Ry/au):

     negative rho (up, down):  1.210E-02 1.210E-02
     atom    1 type  1   force =     0.00001762   -0.00035422   -0.13377794
     atom    2 type  2   force =     0.00000582    0.00002952    0.07211076
     atom    3 type  1   force =    -0.00135446    0.00031031   -0.06094114
     atom    4 type  2   force =     0.00290326    0.00048986    0.00637878
     atom    5 type  1   force =     0.00027413    0.00184847    0.00354694
     atom    6 type  2   force =     0.00005750    0.00000524   -0.00288713
     atom    7 type  1   force =    -0.00035613   -0.00072337    0.00458084
     atom    8 type  2   force =     0.00094064   -0.00020801   -0.00067318
     atom    9 type  1   force =    -0.00002616    0.00002142   -0.13353651
     atom   10 type  2   force =    -0.00006470    0.00006565    0.07129314
     atom   11 type  1   force =    -0.00131805   -0.00023842   -0.05585834
     atom   12 type  2   force =     0.00299637   -0.00006643    0.00609411
     atom   13 type  1   force =     0.00029518   -0.00147609    0.00348101
     atom   14 type  2   force =    -0.00119829   -0.00039066   -0.00292385
     atom   15 type  1   force =    -0.00055204    0.00020705    0.00454560
     atom   16 type  2   force =     0.00057552   -0.00020021   -0.00006224
     atom   17 type  2   force =    -0.00006838   -0.00007075    0.07937784
     atom   18 type  1   force =     0.00013860   -0.00017191    0.11913992
     atom   19 type  2   force =    -0.00010458   -0.00017231   -0.06670031
     atom   20 type  2   force =    -0.06322063    0.00014972   -0.03225564
     atom   21 type  2   force =     0.06320404    0.00001643   -0.03245969
     atom   22 type  1   force =     0.00072643    0.00108289    0.05977031
     atom   23 type  2   force =    -0.00017275    0.00005596   -0.00177285
     atom   24 type  2   force =    -0.00143025   -0.00000575   -0.02328579
     atom   25 type  2   force =    -0.00312966    0.00059027    0.00786408
     atom   26 type  1   force =     0.00063680    0.00028868    0.00463892
     atom   27 type  2   force =     0.00052848    0.00060152   -0.00382892
     atom   28 type  2   force =     0.00014071   -0.00008755   -0.00120420
     atom   29 type  2   force =     0.00021690   -0.00034593   -0.00059277
     atom   30 type  1   force =     0.00031933   -0.00068943    0.00388372
     atom   31 type  2   force =     0.00006240    0.00010716   -0.00261683
     atom   32 type  2   force =     0.00004637   -0.00007302   -0.00121554
     atom   33 type  2   force =    -0.00011719    0.00003769    0.07897944
     atom   34 type  1   force =     0.00007025   -0.00021838    0.11905477
     atom   35 type  2   force =    -0.00030210   -0.00005454   -0.06639725
     atom   36 type  2   force =    -0.06318244   -0.00005364   -0.03234039
     atom   37 type  2   force =     0.06333329   -0.00020252   -0.03249573
     atom   38 type  1   force =     0.00066480   -0.00098474    0.05998463
     atom   39 type  2   force =    -0.00045433    0.00010456   -0.00251786
     atom   40 type  2   force =    -0.00118843    0.00030766   -0.02219471
     atom   41 type  2   force =    -0.00316936   -0.00014882    0.00788956
     atom   42 type  1   force =     0.00051336    0.00006833    0.00376263
     atom   43 type  2   force =     0.00069376    0.00023629   -0.00301373
     atom   44 type  2   force =     0.00023039    0.00010325   -0.00116700
     atom   45 type  2   force =     0.00019218    0.00030761   -0.00062314
     atom   46 type  1   force =     0.00058494    0.00029192    0.00397333
     atom   47 type  2   force =     0.00006582   -0.00032079   -0.00130770
     atom   48 type  2   force =     0.00010911    0.00011178   -0.00093695
     atom   49 type  3   force =    -0.00656389    0.02620791   -0.01077013
     atom   50 type  2   force =     0.00175017   -0.00111214   -0.00320164
     atom   51 type  4   force =     0.00007111   -0.00012794    0.00009353
     atom   52 type  4   force =     0.00032463    0.00031650    0.00065758
     atom   53 type  4   force =     0.00570649   -0.02728908    0.01444052
     atom   54 type  4   force =    -0.00042260    0.00182302   -0.00198285

     Total force =     0.365133     Total SCF correction =     0.000907
 !ASE

     Writing output data file calc.save

     General routines

     Parallel routines

   This run was terminated on:   4:49:24  13Feb2018

   JOB DONE.