     Program PWSCF v.5.1rc2 (svn rev. ) starts on 12Feb2018 at 18:46:16

     Current dimensions of program PWSCF are:
     Max number of different atomic species (ntypx) = 10
     Max number of k-points (npk) =  40000
     Max angular momentum in pseudopotentials (lmaxx) =  3

     IMPORTANT: XC functional enforced from input :
     Exchange-correlation      = BEEF ( 1  4 27 13 2)
     Any further DFT definition will be discarded
     Please, verify this is what you really want

     Subspace diagonalization in iterative solution of the eigenvalue problem:
     a serial algorithm will be used

     Generating pointlists ...
     new r_m :   0.4125 (alat units)  0.7795 (a.u.) for type    1
     new r_m :   0.3995 (alat units)  0.7549 (a.u.) for type    2
     new r_m :   0.4125 (alat units)  0.7795 (a.u.) for type    3
     new r_m :   0.3995 (alat units)  0.7549 (a.u.) for type    4

     bravais-lattice index     =            0
     lattice parameter (alat)  =       1.8897  a.u.
     unit-cell volume          =    7990.9933 (a.u.)^3
     number of atoms/cell      =           54
     number of atomic types    =            4
     number of electrons       =       398.00
     number of Kohn-Sham states=          299
     kinetic-energy cutoff     =      40.4243  Ry
     charge density cutoff     =     404.2426  Ry
     convergence threshold     =      7.3E-07
     mixing beta               =       0.1000
     number of iterations used =           10  plain     mixing
     Exchange-correlation      = BEEF ( 1  4 27 13 2)
     nstep                     =           50

     celldm(1)=   1.889726  celldm(2)=   0.000000  celldm(3)=   0.000000
     celldm(4)=   0.000000  celldm(5)=   0.000000  celldm(6)=   0.000000

     crystal axes: (cart. coord. in units of alat)
               a(1) = (   6.590708   0.000000   0.000000 )
               a(2) = (   0.000000   5.950229   0.000000 )
               a(3) = (   0.000000   0.000000  30.195235 )

     reciprocal axes: (cart. coord. in units 2 pi/alat)
               b(1) = (  0.151729  0.000000  0.000000 )
               b(2) = (  0.000000  0.168061  0.000000 )
               b(3) = (  0.000000  0.000000  0.033118 )

     PseudoPot. # 1 for Ti read from file:
     /home/alatimer/bin/psp/esp_psp_w_gbrvRu/Ti.UPF
     MD5 check sum: 8e4df49b7f0d34bbd5052bf3f5ea0213
     Pseudo is Ultrasoft, Zval = 12.0
     Generated by new atomic code, or converted to UPF format
     Using radial grid of  851 points,  6 beta functions with:
                l(1) =   0
                l(2) =   0
                l(3) =   1
                l(4) =   1
                l(5) =   2
                l(6) =   2
     Q(r) pseudized with  8 coefficients,  rinner =    1.000   1.000   1.000
                                                       1.000   1.000

     PseudoPot. # 2 for  O read from file:
     /home/alatimer/bin/psp/esp_psp_w_gbrvRu/O.UPF
     MD5 check sum: e057bbcf3229fb5d8c36c0c92f9568b4
     Pseudo is Ultrasoft + core correction, Zval =  6.0
     Generated using "atomic" code by A. Dal Corso  v.5.0.2 svn rev. 9415
     Using radial grid of 1095 points,  4 beta functions with:
                l(1) =   0
                l(2) =   0
                l(3) =   1
                l(4) =   1
     Q(r) pseudized with 0 coefficients

     PseudoPot. # 3 for  C read from file:
     /home/alatimer/bin/psp/esp_psp_w_gbrvRu/C.UPF
     MD5 check sum: ab446d787031eba755f1d5ee46644bb0
     Pseudo is Ultrasoft + core correction, Zval =  4.0
     Generated using "atomic" code by A. Dal Corso  v.5.0.2 svn rev. 9415
     Using radial grid of 1073 points,  4 beta functions with:
                l(1) =   0
                l(2) =   0
                l(3) =   1
                l(4) =   1
     Q(r) pseudized with 0 coefficients

     PseudoPot. # 4 for  H read from file:
     /home/alatimer/bin/psp/esp_psp_w_gbrvRu/H.UPF
     MD5 check sum: bd57da0722753ddfd9833a65b40bb853
     Pseudo is Ultrasoft, Zval =  1.0
     Generated using "atomic" code by A. Dal Corso  v.5.0.2 svn rev. 9415
     Using radial grid of  929 points,  2 beta functions with:
                l(1) =   0
                l(2) =   0
     Q(r) pseudized with 0 coefficients

     vdW kernel table read from file vdW_kernel_table
     MD5 check sum: 095c7af220d748ca6e76c0b4c6cfb241

     atomic species   valence    mass     pseudopotential
        Ti1           12.00    47.88000     Ti( 1.00)
        O1             6.00    15.99940      O( 1.00)
        C1             4.00    12.01100      C( 1.00)
        H1             1.00     1.00794      H( 1.00)

     Starting magnetic structure
     atomic species   magnetization
        Ti1          0.250
        O1           0.500
        C1           0.750
        H1           0.000

     No symmetry found

   Cartesian axes

     site n.     atom                  positions (alat units)
         1           Ti1 tau(   1) = (   1.6476770   0.7437786   2.6545865  )
         2           O1  tau(   2) = (   1.6476770   2.2313359   3.9361215  )
         3           Ti1 tau(   3) = (   1.6476770   2.2313359   5.9499405  )
         4           O1  tau(   4) = (   0.3661420   0.7437786   5.9499405  )
         5           Ti1 tau(   5) = (   1.7592931   0.7557636   9.1813031  )
         6           O1  tau(   6) = (   1.6162490   2.2572048  10.5951269  )
         7           Ti1 tau(   7) = (   1.5595004   2.2680265  12.4668274  )
         8           O1  tau(   8) = (   0.3709531   0.7738127  12.6996540  )
         9           Ti1 tau(   9) = (   1.6476770   3.7188931   2.6545865  )
        10           O1  tau(  10) = (   1.6476770   5.2064503   3.9361215  )
        11           Ti1 tau(  11) = (   1.6476770   5.2064503   5.9499405  )
        12           O1  tau(  12) = (   0.3661420   3.7188931   5.9499405  )
        13           Ti1 tau(  13) = (   1.7607536   3.7112867   9.1949733  )
        14           O1  tau(  14) = (   1.6133076   5.2250699  10.5465640  )
        15           Ti1 tau(  15) = (   1.6492307   5.2431137  12.3448001  )
        16           O1  tau(  16) = (   0.3719744   3.7598389  12.7007434  )
        17           O1  tau(  17) = (   1.6476770   2.2313359   1.3730516  )
        18           Ti1 tau(  18) = (   4.9430310   2.2313359   2.6545865  )
        19           O1  tau(  19) = (   4.9430310   2.2313359   4.6684056  )
        20           O1  tau(  20) = (   6.2245660   0.7437786   2.6545865  )
        21           O1  tau(  21) = (   3.6614961   0.7437786   2.6545865  )
        22           Ti1 tau(  22) = (   4.9430310   0.7437786   5.9499405  )
        23           O1  tau(  23) = (   1.6387103   2.2391978   8.0037664  )
        24           O1  tau(  24) = (   4.9430310   2.2313359   7.2314755  )
        25           O1  tau(  25) = (   2.9292120   0.7437786   5.9499405  )
        26           Ti1 tau(  26) = (   5.0158092   2.2383949   9.3973727  )
        27           O1  tau(  27) = (   4.9391445   2.2276729  11.2675731  )
        28           O1  tau(  28) = (   6.2094020   0.7514556   9.2742047  )
        29           O1  tau(  29) = (   3.6131301   0.7515640   9.2682932  )
        30           Ti1 tau(  30) = (   4.8940083   0.8207741  12.7348365  )
        31           O1  tau(  31) = (   4.8487174   2.2703822  13.8475395  )
        32           O1  tau(  32) = (   2.8766274   0.7418004  12.6316555  )
        33           O1  tau(  33) = (   1.6476770   5.2064503   1.3730516  )
        34           Ti1 tau(  34) = (   4.9430310   5.2064503   2.6545865  )
        35           O1  tau(  35) = (   4.9430310   5.2064503   4.6684056  )
        36           O1  tau(  36) = (   6.2245660   3.7188931   2.6545865  )
        37           O1  tau(  37) = (   3.6614961   3.7188931   2.6545865  )
        38           Ti1 tau(  38) = (   4.9430310   3.7188931   5.9499405  )
        39           O1  tau(  39) = (   1.6418458   5.2133935   8.0066417  )
        40           O1  tau(  40) = (   4.9430310   5.2064503   7.2314755  )
        41           O1  tau(  41) = (   2.9292120   3.7188931   5.9499405  )
        42           Ti1 tau(  42) = (   5.0218241   5.2139137   9.3870600  )
        43           O1  tau(  43) = (   4.9399496   5.2040061  11.2598200  )
        44           O1  tau(  44) = (   6.2073000   3.7245411   9.2731052  )
        45           O1  tau(  45) = (   3.6137513   3.7232133   9.2682466  )
        46           Ti1 tau(  46) = (   4.8936935   3.8094630  12.7397413  )
        47           O1  tau(  47) = (   4.9051259   5.2510468  13.8339921  )
        48           O1  tau(  48) = (   2.8743370   3.7938830  12.6403791  )
        49           C1  tau(  49) = (   1.0587210   2.2268971  15.9066084  )
        50           O1  tau(  50) = (   1.8917182   2.2355032  14.7378010  )
        51           H1  tau(  51) = (   0.0610076   2.2200215  15.5603933  )
        52           H1  tau(  52) = (   2.8355400   2.2288152  14.9543747  )
        53           H1  tau(  53) = (   1.2478062   1.3326534  16.5039879  )
        54           H1  tau(  54) = (   1.2341453   3.1195140  16.5098874  )

     number of k points=    40  Fermi-Dirac smearing, width (Ry)=  0.0073
                       cart. coord. in units 2pi/alat
        k(    1) = (   0.0000000   0.0000000   0.0000000), wk =   0.0277778
        k(    2) = (   0.0000000   0.0280101   0.0000000), wk =   0.0555556
        k(    3) = (   0.0000000   0.0560203   0.0000000), wk =   0.0555556
        k(    4) = (   0.0000000  -0.0840304   0.0000000), wk =   0.0277778
        k(    5) = (   0.0252881   0.0000000   0.0000000), wk =   0.0555556
        k(    6) = (   0.0252881   0.0280101   0.0000000), wk =   0.0555556
        k(    7) = (   0.0252881   0.0560203   0.0000000), wk =   0.0555556
        k(    8) = (   0.0252881  -0.0840304   0.0000000), wk =   0.0555556
        k(    9) = (   0.0505763   0.0000000   0.0000000), wk =   0.0555556
        k(   10) = (   0.0505763   0.0280101   0.0000000), wk =   0.0555556
        k(   11) = (   0.0505763   0.0560203   0.0000000), wk =   0.0555556
        k(   12) = (   0.0505763  -0.0840304   0.0000000), wk =   0.0555556
        k(   13) = (  -0.0758644   0.0000000   0.0000000), wk =   0.0277778
        k(   14) = (  -0.0758644   0.0280101   0.0000000), wk =   0.0555556
        k(   15) = (  -0.0758644   0.0560203   0.0000000), wk =   0.0555556
        k(   16) = (  -0.0758644  -0.0840304   0.0000000), wk =   0.0277778
        k(   17) = (  -0.0252881   0.0280101   0.0000000), wk =   0.0555556
        k(   18) = (  -0.0252881   0.0560203   0.0000000), wk =   0.0555556
        k(   19) = (  -0.0505763   0.0280101   0.0000000), wk =   0.0555556
        k(   20) = (  -0.0505763   0.0560203   0.0000000), wk =   0.0555556
        k(   21) = (   0.0000000   0.0000000   0.0000000), wk =   0.0277778
        k(   22) = (   0.0000000   0.0280101   0.0000000), wk =   0.0555556
        k(   23) = (   0.0000000   0.0560203   0.0000000), wk =   0.0555556
        k(   24) = (   0.0000000  -0.0840304   0.0000000), wk =   0.0277778
        k(   25) = (   0.0252881   0.0000000   0.0000000), wk =   0.0555556
        k(   26) = (   0.0252881   0.0280101   0.0000000), wk =   0.0555556
[...]
     atom:   44    charge:    1.9518    magn:   -0.0001    constr:    0.0000
     atom:   45    charge:    1.9468    magn:   -0.0001    constr:    0.0000
     atom:   46    charge:    3.1165    magn:    0.0000    constr:    0.0000
     atom:   47    charge:    1.9431    magn:   -0.0000    constr:    0.0000
     atom:   48    charge:    1.9444    magn:   -0.0001    constr:    0.0000
     atom:   49    charge:    0.6595    magn:   -0.0001    constr:    0.0000
     atom:   50    charge:    1.9579    magn:   -0.0001    constr:    0.0000
     atom:   51    charge:    0.4169    magn:    0.0000    constr:    0.0000
     atom:   52    charge:    0.4005    magn:    0.0000    constr:    0.0000
     atom:   53    charge:    0.4032    magn:    0.0000    constr:    0.0000
     atom:   54    charge:    0.4038    magn:    0.0000    constr:    0.0000

     total energy              =   -3021.41955557 Ry
     Harris-Foulkes estimate   =   -3021.41988143 Ry
     estimated scf accuracy    <       0.00283225 Ry

     total magnetization       =     0.00 Bohr mag/cell
     absolute magnetization    =     0.01 Bohr mag/cell

[...]

     total energy              =   -3021.41912223 Ry
     Harris-Foulkes estimate   =   -3021.41912242 Ry
     estimated scf accuracy    <       0.00000127 Ry

[...]

     iteration #  8     ecut=    40.42 Ry     beta=0.10
     Davidson diagonalization with overlap
     ethr =  3.19E-10,  avg # of iterations =  3.0

     negative rho (up, down):  1.210E-02 1.210E-02

     Magnetic moment per site:
     atom:    1    charge:    3.1250    magn:   -0.0000    constr:    0.0000
     atom:    2    charge:    1.9452    magn:    0.0000    constr:    0.0000
     atom:    3    charge:    3.1198    magn:    0.0000    constr:    0.0000
     atom:    4    charge:    1.9504    magn:   -0.0000    constr:    0.0000
     atom:    5    charge:    3.1166    magn:    0.0000    constr:    0.0000
     atom:    6    charge:    1.9477    magn:   -0.0000    constr:    0.0000
     atom:    7    charge:    3.1157    magn:    0.0000    constr:    0.0000
     atom:    8    charge:    1.9452    magn:   -0.0000    constr:    0.0000
     atom:    9    charge:    3.1250    magn:   -0.0000    constr:    0.0000
     atom:   10    charge:    1.9452    magn:    0.0000    constr:    0.0000
     atom:   11    charge:    3.1197    magn:    0.0000    constr:    0.0000
     atom:   12    charge:    1.9504    magn:   -0.0000    constr:    0.0000
     atom:   13    charge:    3.1158    magn:    0.0000    constr:    0.0000
     atom:   14    charge:    1.9587    magn:   -0.0000    constr:    0.0000
     atom:   15    charge:    3.1188    magn:    0.0000    constr:    0.0000
     atom:   16    charge:    1.9445    magn:   -0.0000    constr:    0.0000
     atom:   17    charge:    1.9184    magn:    0.0001    constr:    0.0000
     atom:   18    charge:    3.1239    magn:   -0.0000    constr:    0.0000
     atom:   19    charge:    1.9408    magn:   -0.0000    constr:    0.0000
     atom:   20    charge:    1.9471    magn:    0.0000    constr:    0.0000
     atom:   21    charge:    1.9471    magn:    0.0000    constr:    0.0000
     atom:   22    charge:    3.1196    magn:    0.0000    constr:    0.0000
     atom:   23    charge:    1.9566    magn:   -0.0000    constr:    0.0000
     atom:   24    charge:    1.9379    magn:   -0.0000    constr:    0.0000
     atom:   25    charge:    1.9505    magn:   -0.0000    constr:    0.0000
     atom:   26    charge:    3.1145    magn:    0.0000    constr:    0.0000
     atom:   27    charge:    1.9398    magn:   -0.0000    constr:    0.0000
     atom:   28    charge:    1.9517    magn:   -0.0000    constr:    0.0000
     atom:   29    charge:    1.9476    magn:   -0.0000    constr:    0.0000
     atom:   30    charge:    3.1167    magn:    0.0000    constr:    0.0000
     atom:   31    charge:    1.9447    magn:   -0.0000    constr:    0.0000
     atom:   32    charge:    1.9440    magn:   -0.0000    constr:    0.0000
     atom:   33    charge:    1.9184    magn:    0.0001    constr:    0.0000
     atom:   34    charge:    3.1239    magn:   -0.0000    constr:    0.0000
     atom:   35    charge:    1.9408    magn:   -0.0000    constr:    0.0000
     atom:   36    charge:    1.9471    magn:    0.0000    constr:    0.0000
     atom:   37    charge:    1.9471    magn:    0.0000    constr:    0.0000
     atom:   38    charge:    3.1196    magn:    0.0000    constr:    0.0000
     atom:   39    charge:    1.9549    magn:   -0.0000    constr:    0.0000
     atom:   40    charge:    1.9383    magn:   -0.0000    constr:    0.0000
     atom:   41    charge:    1.9505    magn:   -0.0000    constr:    0.0000
     atom:   42    charge:    3.1141    magn:    0.0000    constr:    0.0000
     atom:   43    charge:    1.9413    magn:   -0.0000    constr:    0.0000
     atom:   44    charge:    1.9517    magn:   -0.0000    constr:    0.0000
     atom:   45    charge:    1.9468    magn:   -0.0000    constr:    0.0000
     atom:   46    charge:    3.1165    magn:    0.0000    constr:    0.0000
     atom:   47    charge:    1.9431    magn:   -0.0000    constr:    0.0000
     atom:   48    charge:    1.9444    magn:   -0.0000    constr:    0.0000
     atom:   49    charge:    0.6623    magn:   -0.0000    constr:    0.0000
     atom:   50    charge:    1.9579    magn:   -0.0000    constr:    0.0000
     atom:   51    charge:    0.4189    magn:    0.0000    constr:    0.0000
     atom:   52    charge:    0.4007    magn:    0.0000    constr:    0.0000
     atom:   53    charge:    0.4033    magn:    0.0000    constr:    0.0000
     atom:   54    charge:    0.4039    magn:    0.0000    constr:    0.0000

     End of self-consistent calculation

 ------ SPIN UP ------------

          k = 0.0000 0.0000 0.0000 ( 34665 PWs)   bands (ev):

   -57.6976 -57.6627 -57.3165 -57.2802 -57.2313 -57.1086 -57.0722 -57.0712
   -57.0496 -57.0365 -56.9886 -56.9531 -56.7290 -56.6915 -56.1482 -56.1129
   -34.1337 -33.9799 -33.9513 -33.8986 -33.8688 -33.8043 -33.7439 -33.6520
   -33.6172 -33.6040 -33.5665 -33.5394 -33.5172 -33.5064 -33.4884 -33.4842
   -33.4635 -33.4531 -33.4299 -33.3976 -33.3229 -33.2908 -33.2706 -33.2613
   -33.2536 -33.2528 -33.2419 -33.2415 -33.2359 -33.2284 -33.2280 -33.2113
   -33.1789 -33.1786 -33.1735 -33.1394 -33.1168 -32.9951 -32.9770 -32.9560
   -32.9066 -32.8037 -32.5660 -32.5005 -32.4744 -32.3702 -32.2785 -32.1702
   -20.2978 -18.0114 -17.8402 -17.5558 -17.4606 -17.3714 -17.2507 -17.0764
   -17.0652 -16.9733 -16.9376 -16.8831 -16.7827 -16.7765 -16.7281 -16.7062
   -16.7017 -16.6612 -16.6100 -16.6033 -16.5348 -16.4142 -16.4012 -16.3970
   -16.3202 -16.2666 -16.1932 -16.1661 -16.1487 -15.9771 -15.9281 -14.7327
   -14.6491 -11.5309  -7.2393  -5.4992  -5.3980  -5.3317  -5.2057  -5.2045
    -5.1448  -5.1272  -4.8380  -4.8162  -4.4708  -4.4416  -4.3581  -4.3543
    -4.3217  -4.2316  -4.0887  -4.0594  -4.0538  -4.0166  -3.9981  -3.9902
    -3.9595  -3.9520  -3.9500  -3.8388  -3.7872  -3.7642  -3.7377  -3.7210
    -3.6312  -3.6157  -3.5859  -3.5765  -3.5187  -3.5076  -3.4084  -3.3994
    -3.3789  -3.2939  -3.2410  -3.1963  -3.0123  -2.9341  -2.8777  -2.8371
    -2.6945  -2.6059  -2.5887  -2.5789  -2.5761  -2.5673  -2.4302  -2.4131
    -2.3349  -2.2680  -2.2462  -2.2035  -2.1990  -2.1651  -2.1374  -2.0918
    -2.0466  -2.0273  -2.0190  -1.8878  -1.8648  -1.7609  -1.7348  -1.6230
    -1.5417  -1.5400  -1.4891  -1.4797  -1.4621  -1.4223  -1.3229  -1.3082
    -1.3012  -1.2786  -1.2415  -1.1344  -1.0854  -1.0798  -1.0660  -1.0179
    -0.9530  -0.9143  -0.8186  -0.7633  -0.6092  -0.5862  -0.5681  -0.4778
    -0.3751  -0.2411  -0.0837  -0.0252   0.1324   0.2493   0.2630   1.6438
     1.6763   1.9869   2.0033   2.0667   2.0966   2.2062   2.2451   2.2884
     2.4312   2.4985   2.5272   2.5319   2.5433   2.6323   2.6503   2.6585
     2.7166   2.8009   2.8286   2.8404   2.9124   3.0010   3.0348   3.1006
     3.1065   3.1156   3.1623   3.2034   3.2096   3.2278   3.2412   3.2529
     3.2619   3.2902   3.3985   3.4329   3.4581   3.4678   3.5296   3.5870
     3.6547   3.6962   3.8093   3.9822   4.0175   4.0935   4.1812   4.3225
     4.3401   4.3931   4.5874   4.6006   4.8114   4.8403   5.0885   5.1682
     5.2469   5.3319   5.4790   5.5188   5.5272   5.5948   5.6794   5.7133
     5.8011   5.8667   5.8780   5.8878   5.9559   6.0390   6.0492   6.0727
     6.1457   6.2305   6.2447   6.2985   6.3794   6.5830   6.6378   6.7560
     6.8426   7.0094   7.0400   7.1657   7.3036   7.5761   7.9064   8.2536
     8.3308   8.6768   8.7956   8.8747   8.9391   9.0100   9.1772   9.2686
     9.3529   9.3804   9.5343

[...]

          k =-0.0759 0.0000 0.0000 ( 34758 PWs)   bands (ev):

[...]

 ------ SPIN DOWN ----------

[...]

          k = 0.0506-0.0840 0.0000 ( 34628 PWs)   bands (ev):

[...]

          k =-0.0506 0.0560 0.0000 ( 34596 PWs)   bands (ev):

   -57.6890 -57.6716 -57.3075 -57.2891 -57.2299 -57.1000 -57.0803 -57.0629
   -57.0508 -57.0453 -56.9797 -56.9620 -56.7199 -56.7006 -56.1397 -56.1220
   -34.0395 -33.9726 -33.9583 -33.8738 -33.8442 -33.8277 -33.7720 -33.5946
   -33.5733 -33.5708 -33.5341 -33.5200 -33.5138 -33.5096 -33.4755 -33.4721
   -33.4519 -33.4251 -33.4024 -33.3522 -33.3167 -33.3161 -33.2997 -33.2975
   -33.2852 -33.2752 -33.2664 -33.2590 -33.2523 -33.2518 -33.2463 -33.2382
   -33.2088 -33.1990 -33.1691 -33.1630 -33.1241 -32.9861 -32.9762 -32.9604
   -32.9245 -32.9011 -32.4960 -32.4806 -32.4696 -32.3478 -32.3019 -32.2719
   -20.2968 -17.7047 -17.4992 -17.2898 -17.2383 -17.1962 -17.1723 -17.1606
   -17.0883 -17.0356 -17.0046 -16.9121 -16.8552 -16.8476 -16.8431 -16.8049
   -16.7749 -16.7203 -16.6610 -16.6209 -16.6112 -16.5494 -16.5112 -16.3973
   -16.3418 -16.2622 -16.2246 -16.1915 -16.1551 -16.1108 -16.0365 -14.7587
   -14.7231 -11.5260  -7.2291  -5.4744  -5.2191  -5.0233  -4.6578  -4.6157
    -4.5142  -4.4983  -4.4832  -4.4560  -4.4309  -4.3662  -4.3236  -4.3005
    -4.2246  -4.2046  -4.1450  -4.1306  -4.0814  -4.0658  -4.0448  -4.0353
    -4.0128  -3.9950  -3.9673  -3.9133  -3.8928  -3.8870  -3.8208  -3.7862
    -3.7295  -3.6602  -3.6303  -3.5227  -3.4935  -3.3940  -3.3278  -3.2608
    -3.2566  -3.2451  -3.1534  -3.0192  -2.9334  -2.9035  -2.8500  -2.8298
    -2.7553  -2.7256  -2.6838  -2.6083  -2.5904  -2.5665  -2.5290  -2.4888
    -2.4274  -2.4049  -2.3646  -2.3282  -2.3151  -2.2989  -2.2540  -2.1769
    -2.1512  -2.1199  -2.1129  -2.0762  -2.0460  -2.0008  -1.9826  -1.9004
    -1.8901  -1.8502  -1.8312  -1.7233  -1.6363  -1.6047  -1.5715  -1.4771
    -1.4068  -1.3733  -1.3060  -1.2481  -1.2049  -1.1092  -1.0723  -1.0161
    -1.0009  -0.9355  -0.8513  -0.8184  -0.7686  -0.7548  -0.6910  -0.6556
    -0.6503  -0.5162  -0.3231   0.0794   0.1136   0.1315   0.1951   1.8682
     2.0781   2.1670   2.2010   2.2225   2.2451   2.3000   2.3496   2.3948
     2.4051   2.5389   2.5718   2.5809   2.6090   2.6300   2.6851   2.7563
     2.7836   2.8059   2.8405   2.8827   2.9651   3.0060   3.0300   3.0638
     3.0989   3.1379   3.1693   3.2584   3.3372   3.3690   3.3987   3.4426
     3.4805   3.5015   3.5236   3.5442   3.6166   3.6491   3.7132   3.7459
     3.7819   3.8534   3.8820   3.9208   3.9268   3.9559   4.1131   4.1763
     4.2909   4.4748   4.7266   4.8083   4.8183   4.8978   4.9439   5.0936
     5.1672   5.2330   5.2734   5.3292   5.3737   5.4366   5.4972   5.6278
     5.7824   5.8317   5.8829   5.9534   6.0409   6.1255   6.2186   6.2603
     6.2880   6.3476   6.4178   6.4518   6.5035   6.5793   6.6506   6.7176
     6.7321   6.8259   6.8519   6.9857   7.0506   7.4117   7.4323   7.5748
     7.7439   7.9441   8.0707   8.3910   8.5809   8.6107   8.7457   9.0109
     9.2273   9.3255   9.4552

     the Fermi energy is     0.9984 ev

!    total energy              =   -3021.41912241 Ry
     Harris-Foulkes estimate   =   -3021.41912229 Ry
     estimated scf accuracy    <       0.00000053 Ry

     The total energy is the sum of the following terms:

     one-electron contribution =  -41241.63770777 Ry
     hartree contribution      =   20695.07869865 Ry
     xc contribution           =    -553.71192568 Ry
     ewald contribution        =   18078.85202349 Ry
     smearing contrib. (-TS)   =      -0.00021111 Ry

     total magnetization       =     0.00 Bohr mag/cell
     absolute magnetization    =     0.00 Bohr mag/cell

     convergence has been achieved in   8 iterations

     Forces acting on atoms (Ry/au):

     negative rho (up, down):  1.210E-02 1.210E-02
     atom    1 type  1   force =     0.00001502   -0.00035439   -0.13378575
     atom    2 type  2   force =     0.00000351    0.00003080    0.07212238
     atom    3 type  1   force =    -0.00135654    0.00030968   -0.06096438
     atom    4 type  2   force =     0.00290187    0.00048801    0.00638022
     atom    5 type  1   force =     0.00027059    0.00185053    0.00352377
     atom    6 type  2   force =     0.00005578    0.00001217   -0.00286394
     atom    7 type  1   force =    -0.00025860   -0.00074723    0.00450377
     atom    8 type  2   force =     0.00094738   -0.00020013   -0.00062864
     atom    9 type  1   force =    -0.00002878    0.00002076   -0.13354208
     atom   10 type  2   force =    -0.00006938    0.00006655    0.07130020
     atom   11 type  1   force =    -0.00132071   -0.00024112   -0.05588008
     atom   12 type  2   force =     0.00299512   -0.00006736    0.00609655
     atom   13 type  1   force =     0.00028995   -0.00148032    0.00346071
     atom   14 type  2   force =    -0.00120436   -0.00038953   -0.00289810
     atom   15 type  1   force =    -0.00049552    0.00020630    0.00445845
     atom   16 type  2   force =     0.00057018   -0.00019438   -0.00001740
     atom   17 type  2   force =    -0.00007025   -0.00007008    0.07939276
     atom   18 type  1   force =     0.00013612   -0.00017219    0.11913480
     atom   19 type  2   force =    -0.00010820   -0.00017289   -0.06669152
     atom   20 type  2   force =    -0.06322723    0.00014838   -0.03224635
     atom   21 type  2   force =     0.06320217    0.00001672   -0.03244969
     atom   22 type  1   force =     0.00072272    0.00108195    0.05975380
     atom   23 type  2   force =    -0.00017418    0.00005716   -0.00175615
     atom   24 type  2   force =    -0.00143431   -0.00000232   -0.02327381
     atom   25 type  2   force =    -0.00313341    0.00058815    0.00786898
     atom   26 type  1   force =     0.00064150    0.00029296    0.00462447
     atom   27 type  2   force =     0.00053215    0.00059986   -0.00384961
     atom   28 type  2   force =     0.00014116   -0.00009003   -0.00120255
     atom   29 type  2   force =     0.00020976   -0.00034232   -0.00059070
     atom   30 type  1   force =     0.00028463   -0.00059197    0.00394690
     atom   31 type  2   force =     0.00023848    0.00009235   -0.00259806
     atom   32 type  2   force =    -0.00000091   -0.00007402   -0.00120597
     atom   33 type  2   force =    -0.00011800    0.00003631    0.07899223
     atom   34 type  1   force =     0.00006777   -0.00021830    0.11904956
     atom   35 type  2   force =    -0.00030602   -0.00005394   -0.06639242
     atom   36 type  2   force =    -0.06318608   -0.00005123   -0.03233331
     atom   37 type  2   force =     0.06333145   -0.00020229   -0.03248686
     atom   38 type  1   force =     0.00066028   -0.00098193    0.05997072
     atom   39 type  2   force =    -0.00045837    0.00010436   -0.00250331
     atom   40 type  2   force =    -0.00118911    0.00030770   -0.02218377
     atom   41 type  2   force =    -0.00317581   -0.00015016    0.00789524
     atom   42 type  1   force =     0.00051789    0.00006596    0.00373672
     atom   43 type  2   force =     0.00070098    0.00023749   -0.00300582
     atom   44 type  2   force =     0.00022517    0.00010091   -0.00116215
     atom   45 type  2   force =     0.00018542    0.00030761   -0.00061860
     atom   46 type  1   force =     0.00053953    0.00020873    0.00400581
     atom   47 type  2   force =     0.00008623   -0.00033100   -0.00130420
     atom   48 type  2   force =     0.00007278    0.00011966   -0.00094462
     atom   49 type  3   force =     0.03414520   -0.00049001    0.01359621
     atom   50 type  2   force =     0.00395460   -0.00022521   -0.00321305
     atom   51 type  4   force =    -0.03850744   -0.00017396   -0.01110373
     atom   52 type  4   force =     0.00031636    0.00035855    0.00042464
     atom   53 type  4   force =     0.00032891    0.00102352   -0.00033046
     atom   54 type  4   force =     0.00053251   -0.00066482   -0.00021183

     Total force =     0.366684     Total SCF correction =     0.001075
 !ASE

     Writing output data file calc.save

     General routines

     Parallel routines

   This run was terminated on:  19:27:45  12Feb2018

   JOB DONE.