     Program PWSCF v.5.1rc2 (svn rev. ) starts on 10Feb2018 at 19:50:38

     Current dimensions of program PWSCF are:
     Max number of different atomic species (ntypx) = 10
     Max number of k-points (npk) =  40000
     Max angular momentum in pseudopotentials (lmaxx) =  3

     IMPORTANT: XC functional enforced from input :
     Exchange-correlation      = BEEF ( 1  4 27 13 2)
     Any further DFT definition will be discarded
     Please, verify this is what you really want

     Subspace diagonalization in iterative solution of the eigenvalue problem:
     a serial algorithm will be used

     Generating pointlists ...
     new r_m :   0.4125 (alat units)  0.7795 (a.u.) for type    1
     new r_m :   0.4125 (alat units)  0.7795 (a.u.) for type    2

     bravais-lattice index     =            0
     lattice parameter (alat)  =       1.8897  a.u.
     unit-cell volume          =    7990.9933 (a.u.)^3
     number of atoms/cell      =           49
     number of atomic types    =            2
     number of electrons       =       390.00
     number of Kohn-Sham states=          295
     kinetic-energy cutoff     =      40.4243  Ry
     charge density cutoff     =     404.2426  Ry
     convergence threshold     =      7.3E-07
     mixing beta               =       0.1000
     number of iterations used =           10  plain     mixing
     Exchange-correlation      = BEEF ( 1  4 27 13 2)
     nstep                     =           50

     celldm(1)=   1.889726  celldm(2)=   0.000000  celldm(3)=   0.000000
     celldm(4)=   0.000000  celldm(5)=   0.000000  celldm(6)=   0.000000

     crystal axes: (cart. coord. in units of alat)
               a(1) = (   6.590708   0.000000   0.000000 )
               a(2) = (   0.000000   5.950229   0.000000 )
               a(3) = (   0.000000   0.000000  30.195235 )

     reciprocal axes: (cart. coord. in units 2 pi/alat)
               b(1) = (  0.151729  0.000000  0.000000 )
               b(2) = (  0.000000  0.168061  0.000000 )
               b(3) = (  0.000000  0.000000  0.033118 )

     PseudoPot. # 1 for Ti read from file:
     /home/alatimer/bin/psp/esp_psp_w_gbrvRu/Ti.UPF
     MD5 check sum: 8e4df49b7f0d34bbd5052bf3f5ea0213
     Pseudo is Ultrasoft, Zval = 12.0
     Generated by new atomic code, or converted to UPF format
     Using radial grid of  851 points,  6 beta functions with:
                l(1) =   0
                l(2) =   0
                l(3) =   1
                l(4) =   1
                l(5) =   2
                l(6) =   2
     Q(r) pseudized with  8 coefficients,  rinner =    1.000   1.000   1.000
                                                       1.000   1.000

     PseudoPot. # 2 for  O read from file:
     /home/alatimer/bin/psp/esp_psp_w_gbrvRu/O.UPF
     MD5 check sum: e057bbcf3229fb5d8c36c0c92f9568b4
     Pseudo is Ultrasoft + core correction, Zval =  6.0
     Generated using "atomic" code by A. Dal Corso  v.5.0.2 svn rev. 9415
     Using radial grid of 1095 points,  4 beta functions with:
                l(1) =   0
                l(2) =   0
                l(3) =   1
                l(4) =   1
     Q(r) pseudized with 0 coefficients

     vdW kernel table read from file vdW_kernel_table
     MD5 check sum: 095c7af220d748ca6e76c0b4c6cfb241

     atomic species   valence    mass     pseudopotential
        Ti1           12.00    47.88000     Ti( 1.00)
        O1             6.00    15.99940      O( 1.00)

     Starting magnetic structure
     atomic species   magnetization
        Ti1          0.250
        O1           0.500

     No symmetry found

   Cartesian axes

     site n.     atom                  positions (alat units)
         1           Ti1 tau(   1) = (   1.6476770   0.7437786   2.6545865  )
         2           O1  tau(   2) = (   1.6476770   2.2313359   3.9361215  )
         3           Ti1 tau(   3) = (   1.6476770   2.2313359   5.9499405  )
         4           O1  tau(   4) = (   0.3661420   0.7437786   5.9499405  )
         5           Ti1 tau(   5) = (   1.5277661   0.7316361   9.1979924  )
         6           O1  tau(   6) = (   1.6632133   2.1793878  10.6093433  )
         7           Ti1 tau(   7) = (   1.6165400   2.1742892  12.4450098  )
         8           O1  tau(   8) = (   0.4211133   0.7189415  12.7146628  )
         9           Ti1 tau(   9) = (   1.6476770   3.7188931   2.6545865  )
        10           O1  tau(  10) = (   1.6476770   5.2064503   3.9361215  )
        11           Ti1 tau(  11) = (   1.6476770   5.2064503   5.9499405  )
        12           O1  tau(  12) = (   0.3661420   3.7188931   5.9499405  )
        13           Ti1 tau(  13) = (   1.5318737   3.7073984   9.2114718  )
        14           O1  tau(  14) = (   1.6603548   5.2054729  10.6082275  )
        15           Ti1 tau(  15) = (   1.6160620   5.2125286  12.4458513  )
        16           O1  tau(  16) = (   0.3672395   3.6890226  12.4512313  )
        17           O1  tau(  17) = (   1.6476770   2.2313359   1.3730516  )
        18           Ti1 tau(  18) = (   4.9430310   2.2313359   2.6545865  )
        19           O1  tau(  19) = (   4.9430310   2.2313359   4.6684056  )
        20           O1  tau(  20) = (   6.2245660   0.7437786   2.6545865  )
        21           O1  tau(  21) = (   3.6614961   0.7437786   2.6545865  )
        22           Ti1 tau(  22) = (   4.9430310   0.7437786   5.9499405  )
        23           O1  tau(  23) = (   1.6494130   2.2266810   8.0229920  )
        24           O1  tau(  24) = (   4.9430310   2.2313359   7.2314755  )
        25           O1  tau(  25) = (   2.9292120   0.7437786   5.9499405  )
        26           Ti1 tau(  26) = (   4.8570045   2.2038353   9.3960648  )
        27           O1  tau(  27) = (   4.9365002   2.1563787  11.2526517  )
        28           O1  tau(  28) = (   6.2661622   0.7265345   9.2570196  )
        29           O1  tau(  29) = (   3.6607207   0.7252434   9.2585875  )
        30           Ti1 tau(  30) = (   4.8804456   0.7009689  12.7500804  )
        31           O1  tau(  31) = (   4.9885443   2.2055297  13.8060867  )
        32           O1  tau(  32) = (   2.8787315   0.7196740  12.7638696  )
        33           O1  tau(  33) = (   1.6476770   5.2064503   1.3730516  )
        34           Ti1 tau(  34) = (   4.9430310   5.2064503   2.6545865  )
        35           O1  tau(  35) = (   4.9430310   5.2064503   4.6684056  )
        36           O1  tau(  36) = (   6.2245660   3.7188931   2.6545865  )
        37           O1  tau(  37) = (   3.6614961   3.7188931   2.6545865  )
        38           Ti1 tau(  38) = (   4.9430310   3.7188931   5.9499405  )
        39           O1  tau(  39) = (   1.6492404   5.1840375   8.0235373  )
        40           O1  tau(  40) = (   4.9430310   5.2064503   7.2314755  )
        41           O1  tau(  41) = (   2.9292120   3.7188931   5.9499405  )
        42           Ti1 tau(  42) = (   4.8583452   5.1875290   9.3946917  )
        43           O1  tau(  43) = (   4.9366536   5.2195535  11.2514306  )
        44           O1  tau(  44) = (   6.2660656   3.7009687   9.2894568  )
        45           O1  tau(  45) = (   3.6605616   3.6984666   9.2954459  )
        46           Ti1 tau(  46) = (   5.1078939   3.6751672  12.7268755  )
        47           O1  tau(  47) = (   4.9880347   5.1576104  13.8055399  )
        48           O1  tau(  48) = (   3.0285069   3.6936269  12.4216869  )
        49           O1  tau(  49) = (   2.3858682   3.6694311  13.7464468  )

     number of k points=    40  Fermi-Dirac smearing, width (Ry)=  0.0073
                       cart. coord. in units 2pi/alat
        k(    1) = (   0.0000000   0.0000000   0.0000000), wk =   0.0277778
        k(    2) = (   0.0000000   0.0280101   0.0000000), wk =   0.0555556
        k(    3) = (   0.0000000   0.0560203   0.0000000), wk =   0.0555556
        k(    4) = (   0.0000000  -0.0840304   0.0000000), wk =   0.0277778
        k(    5) = (   0.0252881   0.0000000   0.0000000), wk =   0.0555556
        k(    6) = (   0.0252881   0.0280101   0.0000000), wk =   0.0555556
        k(    7) = (   0.0252881   0.0560203   0.0000000), wk =   0.0555556
        k(    8) = (   0.0252881  -0.0840304   0.0000000), wk =   0.0555556
        k(    9) = (   0.0505763   0.0000000   0.0000000), wk =   0.0555556
        k(   10) = (   0.0505763   0.0280101   0.0000000), wk =   0.0555556
        k(   11) = (   0.0505763   0.0560203   0.0000000), wk =   0.0555556
        k(   12) = (   0.0505763  -0.0840304   0.0000000), wk =   0.0555556
        k(   13) = (  -0.0758644   0.0000000   0.0000000), wk =   0.0277778
        k(   14) = (  -0.0758644   0.0280101   0.0000000), wk =   0.0555556
        k(   15) = (  -0.0758644   0.0560203   0.0000000), wk =   0.0555556
        k(   16) = (  -0.0758644  -0.0840304   0.0000000), wk =   0.0277778
        k(   17) = (  -0.0252881   0.0280101   0.0000000), wk =   0.0555556
        k(   18) = (  -0.0252881   0.0560203   0.0000000), wk =   0.0555556
        k(   19) = (  -0.0505763   0.0280101   0.0000000), wk =   0.0555556
        k(   20) = (  -0.0505763   0.0560203   0.0000000), wk =   0.0555556
        k(   21) = (   0.0000000   0.0000000   0.0000000), wk =   0.0277778
        k(   22) = (   0.0000000   0.0280101   0.0000000), wk =   0.0555556
        k(   23) = (   0.0000000   0.0560203   0.0000000), wk =   0.0555556
        k(   24) = (   0.0000000  -0.0840304   0.0000000), wk =   0.0277778
        k(   25) = (   0.0252881   0.0000000   0.0000000), wk =   0.0555556
        k(   26) = (   0.0252881   0.0280101   0.0000000), wk =   0.0555556
        k(   27) = (   0.0252881   0.0560203   0.0000000), wk =   0.0555556
        k(   28) = (   0.0252881  -0.0840304   0.0000000), wk =   0.0555556
        k(   29) = (   0.0505763   0.0000000   0.0000000), wk =   0.0555556
        k(   30) = (   0.0505763   0.0280101   0.0000000), wk =   0.0555556
        k(   31) = (   0.0505763   0.0560203   0.0000000), wk =   0.0555556
        k(   32) = (   0.0505763  -0.0840304   0.0000000), wk =   0.0555556
        k(   33) = (  -0.0758644   0.0000000   0.0000000), wk =   0.0277778
        k(   34) = (  -0.0758644   0.0280101   0.0000000), wk =   0.0555556
        k(   35) = (  -0.0758644   0.0560203   0.0000000), wk =   0.0555556
        k(   36) = (  -0.0758644  -0.0840304   0.0000000), wk =   0.0277778
        k(   37) = (  -0.0252881   0.0280101   0.0000000), wk =   0.0555556
        k(   38) = (  -0.0252881   0.0560203   0.0000000), wk =   0.0555556
        k(   39) = (  -0.0505763   0.0280101   0.0000000), wk =   0.0555556
        k(   40) = (  -0.0505763   0.0560203   0.0000000), wk =   0.0555556

     Largest allocated arrays     est. size (Mb)     dimensions
     Largest temporary arrays     est. size (Mb)     dimensions

     Check: negative/imaginary core charge=   -0.000049    0.000000

     The initial density is read from file :
     ./calc.save/charge-density.dat

     negative rho (up, down):  1.430E-02 1.430E-02

     *
     * You are using vdW-DF for exchange-correlation in this calculation.
     * Please cite the following three references that made this development
     * possible:
     *
[...]
     atom:   29    charge:    2.0876    magn:   -0.0001    constr:    0.0000
     atom:   30    charge:    3.1182    magn:    0.0000    constr:    0.0000
     atom:   31    charge:    2.0840    magn:   -0.0001    constr:    0.0000
     atom:   32    charge:    2.0861    magn:   -0.0001    constr:    0.0000
     atom:   33    charge:    2.0622    magn:    0.0006    constr:    0.0000
     atom:   34    charge:    3.1239    magn:   -0.0001    constr:    0.0000
     atom:   35    charge:    2.0878    magn:   -0.0000    constr:    0.0000
     atom:   36    charge:    2.0846    magn:    0.0001    constr:    0.0000
     atom:   37    charge:    2.0846    magn:    0.0001    constr:    0.0000
     atom:   38    charge:    3.1196    magn:    0.0000    constr:    0.0000
     atom:   39    charge:    2.0909    magn:   -0.0001    constr:    0.0000
     atom:   40    charge:    2.0790    magn:   -0.0000    constr:    0.0000
     atom:   41    charge:    2.0869    magn:   -0.0001    constr:    0.0000
     atom:   42    charge:    3.1146    magn:    0.0000    constr:    0.0000
     atom:   43    charge:    2.0814    magn:   -0.0001    constr:    0.0000
     atom:   44    charge:    2.0857    magn:   -0.0001    constr:    0.0000
     atom:   45    charge:    2.0874    magn:   -0.0001    constr:    0.0000
     atom:   46    charge:    3.1240    magn:    0.0001    constr:    0.0000
     atom:   47    charge:    2.0833    magn:   -0.0001    constr:    0.0000
     atom:   48    charge:    2.0690    magn:   -0.0001    constr:    0.0000
     atom:   49    charge:    2.0398    magn:   -0.0001    constr:    0.0000

     total energy              =   -3004.20031921 Ry
     Harris-Foulkes estimate   =   -3004.21719366 Ry
     estimated scf accuracy    <       0.10812776 Ry

     total magnetization       =     0.00 Bohr mag/cell
     absolute magnetization    =     0.01 Bohr mag/cell

[...]

     total energy              =   -3004.17608295 Ry
     Harris-Foulkes estimate   =   -3004.17608258 Ry
     estimated scf accuracy    <       0.00000231 Ry

[...]

     iteration # 10     ecut=    40.42 Ry     beta=0.10
     Davidson diagonalization with overlap
     ethr =  5.92E-10,  avg # of iterations =  2.0

     negative rho (up, down):  1.430E-02 1.430E-02

     Magnetic moment per site:
     atom:    1    charge:    3.1251    magn:   -0.0000    constr:    0.0000
     atom:    2    charge:    2.0895    magn:    0.0000    constr:    0.0000
     atom:    3    charge:    3.1196    magn:   -0.0000    constr:    0.0000
     atom:    4    charge:    2.0871    magn:   -0.0000    constr:    0.0000
     atom:    5    charge:    3.1167    magn:    0.0000    constr:    0.0000
     atom:    6    charge:    2.0890    magn:   -0.0000    constr:    0.0000
     atom:    7    charge:    3.1219    magn:    0.0000    constr:    0.0000
     atom:    8    charge:    2.0874    magn:   -0.0000    constr:    0.0000
     atom:    9    charge:    3.1251    magn:   -0.0000    constr:    0.0000
     atom:   10    charge:    2.0894    magn:    0.0000    constr:    0.0000
     atom:   11    charge:    3.1197    magn:   -0.0000    constr:    0.0000
     atom:   12    charge:    2.0871    magn:   -0.0000    constr:    0.0000
     atom:   13    charge:    3.1147    magn:    0.0000    constr:    0.0000
     atom:   14    charge:    2.0876    magn:   -0.0000    constr:    0.0000
     atom:   15    charge:    3.1176    magn:    0.0000    constr:    0.0000
     atom:   16    charge:    2.1004    magn:   -0.0000    constr:    0.0000
     atom:   17    charge:    2.0622    magn:    0.0001    constr:    0.0000
     atom:   18    charge:    3.1239    magn:   -0.0000    constr:    0.0000
     atom:   19    charge:    2.0877    magn:    0.0000    constr:    0.0000
     atom:   20    charge:    2.0846    magn:    0.0000    constr:    0.0000
     atom:   21    charge:    2.0846    magn:    0.0000    constr:    0.0000
     atom:   22    charge:    3.1196    magn:    0.0000    constr:    0.0000
     atom:   23    charge:    2.0903    magn:   -0.0000    constr:    0.0000
     atom:   24    charge:    2.0789    magn:   -0.0000    constr:    0.0000
     atom:   25    charge:    2.0869    magn:   -0.0000    constr:    0.0000
     atom:   26    charge:    3.1149    magn:    0.0000    constr:    0.0000
     atom:   27    charge:    2.0818    magn:   -0.0000    constr:    0.0000
     atom:   28    charge:    2.0885    magn:   -0.0000    constr:    0.0000
     atom:   29    charge:    2.0876    magn:   -0.0000    constr:    0.0000
     atom:   30    charge:    3.1182    magn:    0.0000    constr:    0.0000
     atom:   31    charge:    2.0832    magn:   -0.0000    constr:    0.0000
     atom:   32    charge:    2.0862    magn:   -0.0000    constr:    0.0000
     atom:   33    charge:    2.0622    magn:    0.0001    constr:    0.0000
     atom:   34    charge:    3.1239    magn:   -0.0000    constr:    0.0000
     atom:   35    charge:    2.0878    magn:    0.0000    constr:    0.0000
     atom:   36    charge:    2.0846    magn:    0.0000    constr:    0.0000
     atom:   37    charge:    2.0846    magn:    0.0000    constr:    0.0000
     atom:   38    charge:    3.1196    magn:    0.0000    constr:    0.0000
     atom:   39    charge:    2.0909    magn:   -0.0000    constr:    0.0000
     atom:   40    charge:    2.0790    magn:   -0.0000    constr:    0.0000
     atom:   41    charge:    2.0869    magn:   -0.0000    constr:    0.0000
     atom:   42    charge:    3.1146    magn:    0.0000    constr:    0.0000
     atom:   43    charge:    2.0817    magn:   -0.0000    constr:    0.0000
     atom:   44    charge:    2.0857    magn:   -0.0000    constr:    0.0000
     atom:   45    charge:    2.0874    magn:   -0.0000    constr:    0.0000
     atom:   46    charge:    3.1241    magn:    0.0000    constr:    0.0000
     atom:   47    charge:    2.0842    magn:   -0.0000    constr:    0.0000
     atom:   48    charge:    2.0693    magn:   -0.0000    constr:    0.0000
     atom:   49    charge:    2.0447    magn:   -0.0000    constr:    0.0000

     End of self-consistent calculation

 ------ SPIN UP ------------

          k = 0.0000 0.0000 0.0000 ( 34665 PWs)   bands (ev):

   -58.2567 -58.2217 -58.1051 -58.0451 -57.9294 -57.8807 -57.7088 -57.6734
   -57.6527 -57.6174 -57.5777 -57.5414 -57.3929 -57.2318 -56.7034 -56.6681
   -34.6920 -34.6646 -34.5389 -34.5105 -34.4754 -34.4574 -34.4071 -34.3659
   -34.3632 -34.3061 -34.3023 -34.2865 -34.2168 -34.2042 -34.1974 -34.1460
   -34.1455 -34.1099 -34.1017 -34.0888 -34.0657 -33.9942 -33.9041 -33.8869
   -33.8707 -33.8608 -33.8583 -33.8405 -33.8255 -33.8216 -33.8110 -33.8089
   -33.7754 -33.7659 -33.7535 -33.7356 -33.7080 -33.6970 -33.6329 -33.6116
   -33.4625 -33.3932 -33.1218 -33.0556 -33.0295 -32.9261 -32.8343 -32.7257
   -22.5371 -18.6047 -18.4163 -18.3120 -18.0868 -17.9416 -17.8948 -17.8281
   -17.6576 -17.6199 -17.5491 -17.5251 -17.5101 -17.4636 -17.4379 -17.4035
   -17.3697 -17.3014 -17.2626 -17.1649 -17.1301 -17.0113 -17.0105 -16.9744
   -16.8616 -16.7733 -16.7502 -16.7295 -16.5964 -16.5686 -15.7213 -15.2827
   -15.1975  -6.9469  -6.5282  -6.2825  -5.9757  -5.9323  -5.7920  -5.7288
    -5.4657  -5.4179  -5.3753  -5.0912  -5.0424  -4.9999  -4.9765  -4.8916
    -4.8616  -4.7925  -4.7272  -4.6629  -4.6568  -4.6388  -4.5824  -4.5733
    -4.5300  -4.5152  -4.4999  -4.4338  -4.3466  -4.2993  -4.2475  -4.1957
    -4.1693  -4.1052  -4.0942  -4.0655  -4.0402  -3.9657  -3.9620  -3.9398
    -3.8474  -3.6498  -3.6024  -3.5480  -3.4699  -3.4434  -3.4331  -3.2912
    -3.1974  -3.1835  -3.1656  -3.1476  -3.0057  -2.9756  -2.9406  -2.9261
    -2.8645  -2.8267  -2.7928  -2.7699  -2.7622  -2.6921  -2.6769  -2.6069
    -2.5380  -2.4867  -2.4055  -2.3363  -2.2130  -2.1409  -2.1393  -2.0735
    -2.0555  -1.9977  -1.9297  -1.9009  -1.8876  -1.8818  -1.8281  -1.7785
    -1.7526  -1.7129  -1.6570  -1.6323  -1.6151  -1.5579  -1.5264  -1.3735
    -1.2501  -1.1989  -1.1598  -1.1402  -1.0424  -0.7826  -0.6520  -0.6383
    -0.4267  -0.3005  -0.2867   1.0858   1.1120   1.1900   1.3910   1.4453
     1.4520   1.5352   1.6216   1.6630   1.7816   1.8733   1.8874   1.9430
     1.9605   1.9750   2.0032   2.0644   2.0927   2.1024   2.1512   2.1537
     2.2441   2.2612   2.2989   2.3128   2.5042   2.5123   2.5507   2.5623
     2.5627   2.6170   2.6283   2.6398   2.6717   2.7072   2.7623   2.8406
     2.8454   2.8772   2.9086   2.9720   3.0528   3.0554   3.1548   3.3963
     3.5156   3.5303   3.6245   3.6615   3.6792   3.8324   3.8863   4.0372
     4.0871   4.2148   4.4980   4.5108   4.6171   4.6592   4.7744   4.9171
     4.9358   5.0167   5.1343   5.1867   5.2026   5.2452   5.2674   5.2734
     5.3214   5.3940   5.4922   5.5485   5.5900   5.6416   5.6793   5.7823
     5.9013   5.9848   6.0294   6.3623   6.4107   6.4642   6.5610   6.7456
     7.1843   7.8092   7.9759   8.3157   8.5676   8.5938   8.8162   8.8612
     8.9293   9.1857   9.2301   9.3152   9.3472   9.5736   9.6696

[...]

          k =-0.0759 0.0000 0.0000 ( 34758 PWs)   bands (ev):

[...]

 ------ SPIN DOWN ----------

[...]

          k = 0.0506-0.0840 0.0000 ( 34628 PWs)   bands (ev):

[...]

          k =-0.0506 0.0560 0.0000 ( 34596 PWs)   bands (ev):

   -58.2481 -58.2306 -58.1004 -58.0498 -57.9237 -57.8863 -57.6999 -57.6822
   -57.6440 -57.6262 -57.5693 -57.5498 -57.3913 -57.2334 -56.6948 -56.6771
   -34.5978 -34.5661 -34.5317 -34.5174 -34.4326 -34.4026 -34.3914 -34.3866
   -34.3784 -34.3556 -34.3373 -34.3171 -34.2860 -34.1957 -34.1528 -34.1336
   -34.1282 -34.1095 -34.1068 -34.0519 -33.9930 -33.9501 -33.9159 -33.8966
   -33.8822 -33.8787 -33.8672 -33.8551 -33.8392 -33.8331 -33.8322 -33.8224
   -33.7992 -33.7860 -33.7739 -33.7647 -33.7361 -33.6972 -33.6303 -33.6113
   -33.4952 -33.4631 -33.0511 -33.0356 -33.0253 -32.9036 -32.8577 -32.8274
   -22.5139 -18.3125 -18.1218 -18.0513 -17.9435 -17.8287 -17.8176 -17.7820
   -17.7428 -17.7293 -17.6970 -17.6175 -17.6050 -17.5030 -17.4469 -17.4192
   -17.4177 -17.3573 -17.2639 -17.2359 -17.1784 -17.1445 -17.1030 -16.9547
   -16.8410 -16.8114 -16.7823 -16.7477 -16.7350 -16.6675 -15.7041 -15.3076
   -15.2711  -6.6656  -6.3673  -6.2341  -5.5950  -5.2607  -5.2179  -5.1854
    -5.1335  -5.1096  -5.0881  -5.0511  -5.0310  -4.9644  -4.8985  -4.8712
    -4.8634  -4.7874  -4.7700  -4.7142  -4.7066  -4.6698  -4.6518  -4.6232
    -4.5988  -4.5892  -4.5312  -4.4810  -4.4634  -4.4122  -4.3407  -4.2704
    -4.2176  -4.1865  -4.0992  -4.0131  -3.9524  -3.9138  -3.8468  -3.8143
    -3.6819  -3.6236  -3.5643  -3.5064  -3.4867  -3.4481  -3.3817  -3.3586
    -3.2983  -3.2649  -3.2311  -3.1909  -3.1163  -3.0910  -3.0502  -3.0015
    -2.9452  -2.9190  -2.8986  -2.8656  -2.8435  -2.7858  -2.7473  -2.7380
    -2.6962  -2.6775  -2.5720  -2.5347  -2.5140  -2.4715  -2.4411  -2.3768
    -2.3155  -2.2502  -2.1835  -2.1072  -2.0400  -1.9956  -1.9581  -1.8921
    -1.8786  -1.8209  -1.7414  -1.6643  -1.6267  -1.5590  -1.5300  -1.4698
    -1.3776  -1.3509  -1.2882  -1.2369  -1.2233  -1.0579  -0.9110  -0.4708
    -0.4348  -0.4183  -0.3607   1.3025   1.4299   1.5196   1.5218   1.6311
     1.6563   1.6918   1.7016   1.7572   1.8315   1.8513   1.9421   1.9794
     1.9957   2.0265   2.0413   2.0716   2.1391   2.1635   2.2128   2.2450
     2.2653   2.3460   2.4059   2.4368   2.4447   2.4783   2.5452   2.5621
     2.6986   2.7234   2.7696   2.7809   2.8485   2.8621   2.8983   2.9286
     2.9905   3.0607   3.0828   3.1801   3.2097   3.2669   3.3188   3.3519
     3.3669   3.3856   3.5522   3.5989   3.7142   3.7336   3.8317   3.9187
     4.1087   4.2416   4.2534   4.3059   4.4535   4.4787   4.5727   4.6772
     4.7146   4.7716   4.8749   5.0100   5.1476   5.2186   5.2790   5.3545
     5.4829   5.5272   5.6283   5.7591   5.7877   5.7955   5.8486   5.9951
     6.0737   6.0955   6.1716   6.2695   6.3458   6.4332   6.7612   6.9561
     7.1744   7.4498   7.6211   7.7313   8.0431   8.1042   8.1879   8.5309
     8.7109   8.7915   8.9089   9.0763   9.0937   9.4028   9.4763

     the Fermi energy is     0.4340 ev

!    total energy              =   -3004.17608705 Ry
     Harris-Foulkes estimate   =   -3004.17608313 Ry
     estimated scf accuracy    <       0.00000025 Ry

     The total energy is the sum of the following terms:

     one-electron contribution =  -42058.97199700 Ry
     hartree contribution      =   21091.86760928 Ry
     xc contribution           =    -546.24201515 Ry
     ewald contribution        =   18509.17055508 Ry
     smearing contrib. (-TS)   =      -0.00023926 Ry

     total magnetization       =     0.00 Bohr mag/cell
     absolute magnetization    =     0.00 Bohr mag/cell

     convergence has been achieved in  10 iterations

     Forces acting on atoms (Ry/au):

     negative rho (up, down):  1.430E-02 1.430E-02
     atom    1 type  1   force =    -0.00015105    0.00030643   -0.13694968
     atom    2 type  2   force =     0.00008103   -0.00013260    0.07533620
     atom    3 type  1   force =     0.00071860    0.00085433   -0.05923301
     atom    4 type  2   force =     0.00466091   -0.00035284    0.00933587
     atom    5 type  1   force =     0.00005270    0.00106716    0.00014714
     atom    6 type  2   force =    -0.00004794    0.00059782   -0.00359027
     atom    7 type  1   force =     0.00078109   -0.00163434    0.00120124
     atom    8 type  2   force =    -0.00055308   -0.00129575   -0.00020267
     atom    9 type  1   force =    -0.00004600    0.00037865   -0.13695990
     atom   10 type  2   force =     0.00013318   -0.00019610    0.07540289
     atom   11 type  1   force =     0.00079243   -0.00086563   -0.05940190
     atom   12 type  2   force =     0.00430777   -0.00009144    0.00813772
     atom   13 type  1   force =    -0.00052982   -0.00153176    0.00009583
     atom   14 type  2   force =    -0.00016170    0.00011219    0.00163333
     atom   15 type  1   force =    -0.00026050   -0.00088542   -0.00020022
     atom   16 type  2   force =    -0.00009878    0.00216862   -0.00050664
     atom   17 type  2   force =     0.00022358   -0.00004659    0.08097974
     atom   18 type  1   force =    -0.00014438    0.00031697    0.11717381
     atom   19 type  2   force =     0.00029483    0.00018005   -0.06544697
     atom   20 type  2   force =    -0.06318056   -0.00002331   -0.03166156
     atom   21 type  2   force =     0.06295301    0.00017906   -0.03158156
     atom   22 type  1   force =    -0.00066111    0.00003287    0.05925343
     atom   23 type  2   force =    -0.00014722    0.00032191   -0.00034090
     atom   24 type  2   force =     0.00061596   -0.00010367   -0.02272247
     atom   25 type  2   force =    -0.00453091   -0.00028685    0.00822331
     atom   26 type  1   force =    -0.00003652    0.00048281    0.00021074
     atom   27 type  2   force =     0.00023504   -0.00014850   -0.00055239
     atom   28 type  2   force =    -0.00121926   -0.00013203   -0.00021934
     atom   29 type  2   force =     0.00032613   -0.00022771   -0.00006553
     atom   30 type  1   force =     0.00002206    0.00109653    0.00112348
     atom   31 type  2   force =     0.00027621   -0.00040319   -0.00041350
     atom   32 type  2   force =     0.00009056   -0.00168386   -0.00025625
     atom   33 type  2   force =     0.00021850    0.00003882    0.08091479
     atom   34 type  1   force =    -0.00023013    0.00029181    0.11710678
     atom   35 type  2   force =     0.00031736    0.00017519   -0.06548866
     atom   36 type  2   force =    -0.06309190    0.00014592   -0.03191878
     atom   37 type  2   force =     0.06314238    0.00017362   -0.03155795
     atom   38 type  1   force =    -0.00046678   -0.00018978    0.05893157
     atom   39 type  2   force =     0.00013984   -0.00046069   -0.00067891
     atom   40 type  2   force =     0.00044355   -0.00230954   -0.02228516
     atom   41 type  2   force =    -0.00416869   -0.00027979    0.00761070
     atom   42 type  1   force =    -0.00022608   -0.00043004    0.00002288
     atom   43 type  2   force =    -0.00007962    0.00000377   -0.00023738
     atom   44 type  2   force =     0.00026328    0.00023386   -0.00007710
     atom   45 type  2   force =    -0.00015430   -0.00001254   -0.00018124
     atom   46 type  1   force =    -0.00139518    0.00006050    0.00069583
     atom   47 type  2   force =    -0.00058538    0.00035778   -0.00023317
     atom   48 type  2   force =     0.00091297    0.00135977    0.00036809
     atom   49 type  2   force =     0.00016392    0.00278753   -0.00094227

     Total force =     0.365226     Total SCF correction =     0.001311
 !ASE

     Writing output data file calc.save

     General routines

     Parallel routines

   This run was terminated on:  20:35: 5  10Feb2018

   JOB DONE.