     Program PWSCF v.5.1rc2 (svn rev. ) starts on 11Feb2018 at  1:27: 0

     Current dimensions of program PWSCF are:
     Max number of different atomic species (ntypx) = 10
     Max number of k-points (npk) =  40000
     Max angular momentum in pseudopotentials (lmaxx) =  3

     IMPORTANT: XC functional enforced from input :
     Exchange-correlation      = BEEF ( 1  4 27 13 2)
     Any further DFT definition will be discarded
     Please, verify this is what you really want

     Subspace diagonalization in iterative solution of the eigenvalue problem:
     a serial algorithm will be used

     Generating pointlists ...
     new r_m :   0.4125 (alat units)  0.7795 (a.u.) for type    1
     new r_m :   0.3933 (alat units)  0.7433 (a.u.) for type    2
     new r_m :   0.3933 (alat units)  0.7433 (a.u.) for type    3

     bravais-lattice index     =            0
     lattice parameter (alat)  =       1.8897  a.u.
     unit-cell volume          =    7990.9933 (a.u.)^3
     number of atoms/cell      =           50
     number of atomic types    =            3
     number of electrons       =       391.00
     number of Kohn-Sham states=          295
     kinetic-energy cutoff     =      40.4243  Ry
     charge density cutoff     =     404.2426  Ry
     convergence threshold     =      7.3E-07
     mixing beta               =       0.1000
     number of iterations used =           10  plain     mixing
     Exchange-correlation      = BEEF ( 1  4 27 13 2)
     nstep                     =           50

     celldm(1)=   1.889726  celldm(2)=   0.000000  celldm(3)=   0.000000
     celldm(4)=   0.000000  celldm(5)=   0.000000  celldm(6)=   0.000000

     crystal axes: (cart. coord. in units of alat)
               a(1) = (   6.590708   0.000000   0.000000 )
               a(2) = (   0.000000   5.950229   0.000000 )
               a(3) = (   0.000000   0.000000  30.195235 )

     reciprocal axes: (cart. coord. in units 2 pi/alat)
               b(1) = (  0.151729  0.000000  0.000000 )
               b(2) = (  0.000000  0.168061  0.000000 )
               b(3) = (  0.000000  0.000000  0.033118 )

     PseudoPot. # 1 for Ti read from file:
     /home/alatimer/bin/psp/esp_psp_w_gbrvRu/Ti.UPF
     MD5 check sum: 8e4df49b7f0d34bbd5052bf3f5ea0213
     Pseudo is Ultrasoft, Zval = 12.0
     Generated by new atomic code, or converted to UPF format
     Using radial grid of  851 points,  6 beta functions with:
                l(1) =   0
                l(2) =   0
                l(3) =   1
                l(4) =   1
                l(5) =   2
                l(6) =   2
     Q(r) pseudized with  8 coefficients,  rinner =    1.000   1.000   1.000
                                                       1.000   1.000

     PseudoPot. # 2 for  O read from file:
     /home/alatimer/bin/psp/esp_psp_w_gbrvRu/O.UPF
     MD5 check sum: e057bbcf3229fb5d8c36c0c92f9568b4
     Pseudo is Ultrasoft + core correction, Zval =  6.0
     Generated using "atomic" code by A. Dal Corso  v.5.0.2 svn rev. 9415
     Using radial grid of 1095 points,  4 beta functions with:
                l(1) =   0
                l(2) =   0
                l(3) =   1
                l(4) =   1
     Q(r) pseudized with 0 coefficients

     PseudoPot. # 3 for  H read from file:
     /home/alatimer/bin/psp/esp_psp_w_gbrvRu/H.UPF
     MD5 check sum: bd57da0722753ddfd9833a65b40bb853
     Pseudo is Ultrasoft, Zval =  1.0
     Generated using "atomic" code by A. Dal Corso  v.5.0.2 svn rev. 9415
     Using radial grid of  929 points,  2 beta functions with:
                l(1) =   0
                l(2) =   0
     Q(r) pseudized with 0 coefficients

     vdW kernel table read from file vdW_kernel_table
     MD5 check sum: 095c7af220d748ca6e76c0b4c6cfb241

     atomic species   valence    mass     pseudopotential
        Ti1           12.00    47.88000     Ti( 1.00)
        O1             6.00    15.99940      O( 1.00)
        H1             1.00     1.00794      H( 1.00)

     Starting magnetic structure
     atomic species   magnetization
        Ti1          0.250
        O1           0.500
        H1           0.000

      2 Sym. Ops. (no inversion) found ( 1 have fractional translation)

   Cartesian axes

     site n.     atom                  positions (alat units)
         1           Ti1 tau(   1) = (   1.6476770   0.7437786   2.6545865  )
         2           O1  tau(   2) = (   1.6476770   2.2313359   3.9361215  )
         3           Ti1 tau(   3) = (   1.6476770   2.2313359   5.9499405  )
         4           O1  tau(   4) = (   0.3661420   0.7437786   5.9499405  )
         5           Ti1 tau(   5) = (   1.6423058   0.7993178   9.2289010  )
         6           O1  tau(   6) = (   1.6406404   2.2313359  10.4535548  )
         7           Ti1 tau(   7) = (   1.6373334   2.2313359  13.0586656  )
         8           O1  tau(   8) = (   0.3716334   0.7231912  12.7369480  )
         9           Ti1 tau(   9) = (   1.6476770   3.7188931   2.6545865  )
        10           O1  tau(  10) = (   1.6476770   5.2064503   3.9361215  )
        11           Ti1 tau(  11) = (   1.6476770   5.2064503   5.9499405  )
        12           O1  tau(  12) = (   0.3661420   3.7188931   5.9499405  )
        13           Ti1 tau(  13) = (   1.6423059   3.6633529   9.2289023  )
        14           O1  tau(  14) = (   1.6396028   5.2064504  10.5374954  )
        15           Ti1 tau(  15) = (   1.6366369   5.2064504  12.3426698  )
        16           O1  tau(  16) = (   0.3716333   3.7394800  12.7369475  )
        17           O1  tau(  17) = (   1.6476770   2.2313359   1.3730516  )
        18           Ti1 tau(  18) = (   4.9430310   2.2313359   2.6545865  )
        19           O1  tau(  19) = (   4.9430310   2.2313359   4.6684056  )
        20           O1  tau(  20) = (   6.2245660   0.7437786   2.6545865  )
        21           O1  tau(  21) = (   3.6614961   0.7437786   2.6545865  )
        22           Ti1 tau(  22) = (   4.9430310   0.7437786   5.9499405  )
        23           O1  tau(  23) = (   1.6444126   2.2313359   7.9291264  )
        24           O1  tau(  24) = (   4.9430310   2.2313359   7.2314755  )
        25           O1  tau(  25) = (   2.9292120   0.7437786   5.9499405  )
        26           Ti1 tau(  26) = (   4.9374203   2.2313360   9.4425711  )
        27           O1  tau(  27) = (   4.9384755   2.2313359  11.2756104  )
        28           O1  tau(  28) = (   6.2333856   0.7395591   9.2701299  )
        29           O1  tau(  29) = (   3.6424277   0.7403199   9.2676498  )
        30           Ti1 tau(  30) = (   4.9388558   0.7382018  12.7898683  )
        31           O1  tau(  31) = (   4.8884434   2.2313358  13.8602379  )
        32           O1  tau(  32) = (   2.8718067   0.7224686  12.6922084  )
        33           O1  tau(  33) = (   1.6476770   5.2064503   1.3730516  )
        34           Ti1 tau(  34) = (   4.9430310   5.2064503   2.6545865  )
        35           O1  tau(  35) = (   4.9430310   5.2064503   4.6684056  )
        36           O1  tau(  36) = (   6.2245660   3.7188931   2.6545865  )
        37           O1  tau(  37) = (   3.6614961   3.7188931   2.6545865  )
        38           Ti1 tau(  38) = (   4.9430310   3.7188931   5.9499405  )
        39           O1  tau(  39) = (   1.6444418   5.2064506   7.9393866  )
        40           O1  tau(  40) = (   4.9430310   5.2064503   7.2314755  )
        41           O1  tau(  41) = (   2.9292120   3.7188931   5.9499405  )
        42           Ti1 tau(  42) = (   4.9387790   5.2064503   9.4241858  )
        43           O1  tau(  43) = (   4.9379278   5.2064504  11.2756977  )
        44           O1  tau(  44) = (   6.2333855   3.7231127   9.2701299  )
        45           O1  tau(  45) = (   3.6424278   3.7223520   9.2676499  )
        46           Ti1 tau(  46) = (   4.9388558   3.7244696  12.7898683  )
        47           O1  tau(  47) = (   4.8902929   5.2064502  13.8618696  )
        48           O1  tau(  48) = (   2.8718066   3.7402036  12.6922086  )
        49           O1  tau(  49) = (   1.7618258   2.2313358  14.8494317  )
        50           H1  tau(  50) = (   2.6007197   2.2313366  15.3028018  )

     number of k points=    32  Fermi-Dirac smearing, width (Ry)=  0.0073
                       cart. coord. in units 2pi/alat
        k(    1) = (   0.0000000   0.0000000   0.0000000), wk =   0.0277778
        k(    2) = (   0.0000000   0.0280101   0.0000000), wk =   0.0555556
        k(    3) = (   0.0000000   0.0560203   0.0000000), wk =   0.0555556
        k(    4) = (   0.0000000  -0.0840304   0.0000000), wk =   0.0277778
        k(    5) = (   0.0252881   0.0000000   0.0000000), wk =   0.0555556
        k(    6) = (   0.0252881   0.0280101   0.0000000), wk =   0.1111111
        k(    7) = (   0.0252881   0.0560203   0.0000000), wk =   0.1111111
        k(    8) = (   0.0252881  -0.0840304   0.0000000), wk =   0.0555556
        k(    9) = (   0.0505763   0.0000000   0.0000000), wk =   0.0555556
        k(   10) = (   0.0505763   0.0280101   0.0000000), wk =   0.1111111
        k(   11) = (   0.0505763   0.0560203   0.0000000), wk =   0.1111111
        k(   12) = (   0.0505763  -0.0840304   0.0000000), wk =   0.0555556
        k(   13) = (  -0.0758644   0.0000000   0.0000000), wk =   0.0277778
        k(   14) = (  -0.0758644   0.0280101   0.0000000), wk =   0.0555556
        k(   15) = (  -0.0758644   0.0560203   0.0000000), wk =   0.0555556
        k(   16) = (  -0.0758644  -0.0840304   0.0000000), wk =   0.0277778
        k(   17) = (   0.0000000   0.0000000   0.0000000), wk =   0.0277778
        k(   18) = (   0.0000000   0.0280101   0.0000000), wk =   0.0555556
        k(   19) = (   0.0000000   0.0560203   0.0000000), wk =   0.0555556
        k(   20) = (   0.0000000  -0.0840304   0.0000000), wk =   0.0277778
        k(   21) = (   0.0252881   0.0000000   0.0000000), wk =   0.0555556
        k(   22) = (   0.0252881   0.0280101   0.0000000), wk =   0.1111111
        k(   23) = (   0.0252881   0.0560203   0.0000000), wk =   0.1111111
        k(   24) = (   0.0252881  -0.0840304   0.0000000), wk =   0.0555556
        k(   25) = (   0.0505763   0.0000000   0.0000000), wk =   0.0555556
        k(   26) = (   0.0505763   0.0280101   0.0000000), wk =   0.1111111
        k(   27) = (   0.0505763   0.0560203   0.0000000), wk =   0.1111111
        k(   28) = (   0.0505763  -0.0840304   0.0000000), wk =   0.0555556
        k(   29) = (  -0.0758644   0.0000000   0.0000000), wk =   0.0277778
        k(   30) = (  -0.0758644   0.0280101   0.0000000), wk =   0.0555556
        k(   31) = (  -0.0758644   0.0560203   0.0000000), wk =   0.0555556
        k(   32) = (  -0.0758644  -0.0840304   0.0000000), wk =   0.0277778

     Largest allocated arrays     est. size (Mb)     dimensions
     Largest temporary arrays     est. size (Mb)     dimensions

     Check: negative/imaginary core charge=   -0.000049    0.000000

     The initial density is read from file :
     ./calc.save/charge-density.dat

     negative rho (up, down):  1.350E-02 1.350E-02

     *
     * You are using vdW-DF for exchange-correlation in this calculation.
[...]
     atom:   33    charge:    1.8543    magn:    0.0010    constr:    0.0000
     atom:   34    charge:    3.1239    magn:    0.0000    constr:    0.0000
     atom:   35    charge:    1.8763    magn:    0.0000    constr:    0.0000
     atom:   36    charge:    1.8831    magn:    0.0000    constr:    0.0000
     atom:   37    charge:    1.8831    magn:    0.0000    constr:    0.0000
     atom:   38    charge:    3.1199    magn:    0.0000    constr:    0.0000
     atom:   39    charge:    1.8823    magn:   -0.0001    constr:    0.0000
     atom:   40    charge:    1.8739    magn:   -0.0002    constr:    0.0000
     atom:   41    charge:    1.8855    magn:   -0.0000    constr:    0.0000
     atom:   42    charge:    3.1217    magn:    0.0001    constr:    0.0000
     atom:   43    charge:    1.8743    magn:   -0.0002    constr:    0.0000
     atom:   44    charge:    1.8837    magn:   -0.0002    constr:    0.0000
     atom:   45    charge:    1.8818    magn:   -0.0002    constr:    0.0000
     atom:   46    charge:    3.1193    magn:    0.0000    constr:    0.0000
     atom:   47    charge:    1.8809    magn:   -0.0001    constr:    0.0000
     atom:   48    charge:    1.8820    magn:   -0.0001    constr:    0.0000
     atom:   49    charge:    1.8953    magn:    0.0000    constr:    0.0000
     atom:   50    charge:    0.3932    magn:   -0.0000    constr:    0.0000

     total energy              =   -3005.52918932 Ry
     Harris-Foulkes estimate   =   -3005.52969885 Ry
     estimated scf accuracy    <       0.00334039 Ry

     total magnetization       =     0.00 Bohr mag/cell
     absolute magnetization    =     0.01 Bohr mag/cell

     iteration #  2     ecut=    40.42 Ry     beta=0.10
     Davidson diagonalization with overlap
     ethr =  8.54E-07,  avg # of iterations =  4.2

[...]

     total energy              =   -3005.52937848 Ry
     Harris-Foulkes estimate   =   -3005.52937852 Ry
     estimated scf accuracy    <       0.00000096 Ry

[...]

     iteration # 11     ecut=    40.42 Ry     beta=0.10
     Davidson diagonalization with overlap
     ethr =  2.45E-10,  avg # of iterations =  1.0

     negative rho (up, down):  1.352E-02 1.352E-02

     Magnetic moment per site:
     atom:    1    charge:    3.1244    magn:   -0.0001    constr:    0.0000
     atom:    2    charge:    1.8809    magn:    0.0001    constr:    0.0000
     atom:    3    charge:    3.1200    magn:   -0.0000    constr:    0.0000
     atom:    4    charge:    1.8855    magn:    0.0000    constr:    0.0000
     atom:    5    charge:    3.1144    magn:    0.0000    constr:    0.0000
     atom:    6    charge:    1.8761    magn:   -0.0000    constr:    0.0000
     atom:    7    charge:    3.1163    magn:    0.0000    constr:    0.0000
     atom:    8    charge:    1.8816    magn:   -0.0000    constr:    0.0000
     atom:    9    charge:    3.1244    magn:   -0.0001    constr:    0.0000
     atom:   10    charge:    1.8810    magn:    0.0001    constr:    0.0000
     atom:   11    charge:    3.1198    magn:   -0.0000    constr:    0.0000
     atom:   12    charge:    1.8855    magn:    0.0000    constr:    0.0000
     atom:   13    charge:    3.1144    magn:    0.0000    constr:    0.0000
     atom:   14    charge:    1.8893    magn:   -0.0000    constr:    0.0000
     atom:   15    charge:    3.1165    magn:    0.0000    constr:    0.0000
     atom:   16    charge:    1.8816    magn:   -0.0000    constr:    0.0000
     atom:   17    charge:    1.8547    magn:    0.0004    constr:    0.0000
     atom:   18    charge:    3.1239    magn:   -0.0000    constr:    0.0000
     atom:   19    charge:    1.8763    magn:    0.0000    constr:    0.0000
     atom:   20    charge:    1.8832    magn:    0.0000    constr:    0.0000
     atom:   21    charge:    1.8832    magn:    0.0000    constr:    0.0000
     atom:   22    charge:    3.1199    magn:    0.0000    constr:    0.0000
     atom:   23    charge:    1.8897    magn:   -0.0000    constr:    0.0000
     atom:   24    charge:    1.8735    magn:   -0.0000    constr:    0.0000
     atom:   25    charge:    1.8855    magn:    0.0000    constr:    0.0000
     atom:   26    charge:    3.1143    magn:    0.0000    constr:    0.0000
     atom:   27    charge:    1.8742    magn:   -0.0001    constr:    0.0000
     atom:   28    charge:    1.8836    magn:   -0.0000    constr:    0.0000
     atom:   29    charge:    1.8817    magn:   -0.0000    constr:    0.0000
     atom:   30    charge:    3.1193    magn:    0.0000    constr:    0.0000
     atom:   31    charge:    1.8815    magn:   -0.0000    constr:    0.0000
     atom:   32    charge:    1.8819    magn:   -0.0000    constr:    0.0000
     atom:   33    charge:    1.8547    magn:    0.0004    constr:    0.0000
     atom:   34    charge:    3.1239    magn:   -0.0000    constr:    0.0000
     atom:   35    charge:    1.8763    magn:    0.0000    constr:    0.0000
     atom:   36    charge:    1.8832    magn:    0.0000    constr:    0.0000
     atom:   37    charge:    1.8832    magn:    0.0000    constr:    0.0000
     atom:   38    charge:    3.1199    magn:    0.0000    constr:    0.0000
     atom:   39    charge:    1.8823    magn:   -0.0000    constr:    0.0000
     atom:   40    charge:    1.8739    magn:   -0.0000    constr:    0.0000
     atom:   41    charge:    1.8855    magn:    0.0000    constr:    0.0000
     atom:   42    charge:    3.1217    magn:    0.0000    constr:    0.0000
     atom:   43    charge:    1.8742    magn:   -0.0001    constr:    0.0000
     atom:   44    charge:    1.8836    magn:   -0.0000    constr:    0.0000
     atom:   45    charge:    1.8817    magn:   -0.0000    constr:    0.0000
     atom:   46    charge:    3.1193    magn:    0.0000    constr:    0.0000
     atom:   47    charge:    1.8810    magn:   -0.0000    constr:    0.0000
     atom:   48    charge:    1.8819    magn:   -0.0000    constr:    0.0000
     atom:   49    charge:    1.8967    magn:   -0.0000    constr:    0.0000
     atom:   50    charge:    0.3947    magn:   -0.0000    constr:    0.0000

     End of self-consistent calculation

 ------ SPIN UP ------------

          k = 0.0000 0.0000 0.0000 ( 34665 PWs)   bands (ev):

   -58.5213 -58.4862 -57.6104 -57.5809 -57.5747 -57.4982 -57.4846 -57.4450
   -57.3463 -57.3165 -57.2792 -57.2436 -57.1340 -57.0988 -57.0292 -56.9913
   -34.9661 -34.7902 -34.7614 -34.7276 -34.6326 -34.5757 -34.1096 -34.0654
   -34.0270 -33.8843 -33.8634 -33.8049 -33.7836 -33.7778 -33.7684 -33.7596
   -33.7541 -33.7359 -33.7164 -33.7103 -33.7074 -33.6870 -33.6761 -33.6720
   -33.6656 -33.6536 -33.6499 -33.6087 -33.5659 -33.5627 -33.5527 -33.5170
   -33.5118 -33.5047 -33.4749 -33.4610 -33.4493 -33.4483 -33.4274 -33.4002
   -33.3524 -33.3065 -33.2627 -33.2624 -33.2427 -33.2181 -33.1610 -33.1102
   -18.6849 -18.3406 -18.2570 -18.0262 -17.9267 -17.7591 -17.7447 -17.6447
   -17.6070 -17.5836 -17.4722 -17.2761 -17.2344 -17.2276 -17.1634 -17.0655
   -17.0442 -17.0230 -16.9549 -16.9135 -16.8651 -16.8297 -16.8231 -16.7995
   -16.7059 -16.6436 -16.6293 -16.5265 -16.5119 -16.3622 -16.2982 -15.8140
   -15.7536  -6.2629  -6.0137  -5.7086  -5.5121  -5.4306  -5.3285  -5.2026
    -5.1801  -5.0932  -4.9622  -4.8707  -4.8149  -4.8023  -4.7303  -4.6559
    -4.6278  -4.5591  -4.5456  -4.4326  -4.4298  -4.3733  -4.3579  -4.2636
    -4.2399  -4.1853  -4.1228  -4.1102  -4.1034  -4.0915  -4.0093  -3.9935
    -3.9253  -3.8541  -3.8478  -3.7579  -3.7491  -3.7429  -3.6352  -3.6298
    -3.5988  -3.4860  -3.4635  -3.4244  -3.3125  -3.1434  -3.1055  -3.0526
    -2.9876  -2.9732  -2.9107  -2.8970  -2.8926  -2.7838  -2.7674  -2.7507
    -2.6602  -2.6068  -2.5230  -2.4470  -2.4438  -2.4106  -2.3515  -2.3004
    -2.2476  -2.2024  -2.1856  -2.1376  -2.0963  -2.0895  -1.9429  -1.8593
    -1.8435  -1.8390  -1.8293  -1.7265  -1.6380  -1.5819  -1.5704  -1.5350
    -1.5313  -1.5165  -1.4665  -1.3815  -1.3608  -1.3407  -1.3238  -1.3009
    -1.2915  -1.1733  -1.0830  -1.0035  -0.9677  -0.8969  -0.8858  -0.8333
    -0.7664  -0.7314  -0.6812  -0.3875   0.8103   0.9076   1.2007   1.4831
     1.5908   1.6769   1.7064   1.7989   1.8310   1.9080   1.9411   2.0083
     2.0140   2.1597   2.1740   2.2455   2.2713   2.3000   2.3806   2.4045
     2.4526   2.4596   2.4961   2.5092   2.5914   2.6147   2.6595   2.7056
     2.7322   2.7391   2.7865   2.8170   2.8443   2.8633   2.8708   2.9826
     2.9973   3.0220   3.1973   3.1990   3.2266   3.2375   3.3360   3.3949
     3.4305   3.4878   3.5824   3.7327   3.8668   3.8810   4.0675   4.2597
     4.3906   4.4770   4.4916   4.6361   4.7881   4.9121   4.9529   5.0467
     5.1752   5.1888   5.2190   5.2359   5.3247   5.3286   5.3690   5.4458
     5.4667   5.5178   5.6788   5.7000   5.7926   5.8667   5.8920   5.8974
     5.9931   6.0268   6.2133   6.2772   6.3309   6.4151   6.5713   6.5991
     7.1093   7.8024   7.9804   8.0159   8.2129   8.2840   8.5664   8.7191
     8.8073   9.0659   9.2016   9.2348   9.3677   9.4959   9.6368

[...]

          k =-0.0759 0.0000 0.0000 ( 34758 PWs)   bands (ev):

[...]

 ------ SPIN DOWN ----------

[...]

          k = 0.0506-0.0840 0.0000 ( 34628 PWs)   bands (ev):

[...]

          k =-0.0759-0.0840 0.0000 ( 34556 PWs)   bands (ev):

   -58.5047 -58.5030 -57.5924 -57.5924 -57.5772 -57.5022 -57.4734 -57.4561
   -57.3388 -57.3239 -57.2654 -57.2572 -57.1169 -57.1169 -57.0111 -57.0094
   -34.7767 -34.7760 -34.7746 -34.7743 -34.6795 -34.6780 -33.9175 -33.9170
   -33.9116 -33.8965 -33.8592 -33.8170 -33.8170 -33.8053 -33.7891 -33.7863
   -33.7806 -33.7717 -33.7402 -33.7096 -33.7049 -33.6856 -33.6842 -33.6770
   -33.6677 -33.6371 -33.5973 -33.5791 -33.5780 -33.5706 -33.5584 -33.5335
   -33.4963 -33.4934 -33.4891 -33.4781 -33.4633 -33.4633 -33.3620 -33.3616
   -33.3576 -33.3478 -33.3085 -33.3081 -33.2553 -33.2542 -33.2492 -33.2419
   -18.3283 -18.0295 -18.0291 -17.9592 -17.9572 -17.7162 -17.6730 -17.6720
   -17.6700 -17.4003 -17.2724 -17.2640 -17.2617 -17.1715 -17.1647 -17.1109
   -17.0707 -17.0242 -17.0082 -16.9946 -16.9929 -16.9898 -16.9845 -16.7847
   -16.7625 -16.7486 -16.7463 -16.6569 -16.6547 -16.4789 -16.4543 -15.8636
   -15.8635  -6.0017  -5.0998  -5.0900  -5.0215  -5.0194  -4.8875  -4.8873
    -4.8840  -4.8782  -4.6338  -4.6292  -4.6249  -4.5620  -4.4997  -4.4289
    -4.4266  -4.4252  -4.3915  -4.3775  -4.3629  -4.3517  -4.3338  -4.2847
    -4.2814  -4.2527  -4.2509  -4.2347  -4.1249  -4.0711  -4.0081  -3.9879
    -3.9536  -3.8784  -3.8649  -3.8622  -3.7461  -3.6673  -3.6561  -3.6525
    -3.5286  -3.5260  -3.3721  -3.3699  -3.3597  -3.3244  -3.2550  -3.2203
    -3.1539  -3.1262  -3.0707  -3.0607  -3.0277  -3.0132  -2.9938  -2.9143
    -2.8674  -2.7758  -2.7382  -2.6955  -2.6536  -2.6235  -2.5894  -2.5681
    -2.5444  -2.4662  -2.4402  -2.4338  -2.4056  -2.3505  -2.2953  -2.2625
    -2.1487  -2.0790  -2.0657  -2.0544  -1.9361  -1.8682  -1.8557  -1.7119
    -1.6696  -1.6435  -1.6312  -1.6060  -1.3638  -1.3233  -1.3070  -1.2959
    -1.2661  -1.2196  -1.1404  -1.0516  -0.9944  -0.9607  -0.9474  -0.9113
    -0.8883  -0.8526  -0.7853  -0.7719   1.3873   1.3913   1.4029   1.4086
     1.7507   1.7514   1.8792   1.8811   2.0311   2.0883   2.0910   2.1450
     2.2176   2.2467   2.3411   2.4137   2.4212   2.4899   2.5240   2.5758
     2.5863   2.6188   2.7430   2.7457   2.7571   2.7736   2.7912   2.8205
     2.8692   2.8941   2.9361   3.0249   3.0280   3.0312   3.0536   3.0691
     3.1457   3.1796   3.1803   3.2188   3.2432   3.2675   3.2821   3.2846
     3.3480   3.3730   3.5237   3.6012   3.6727   3.6737   3.9265   3.9270
     4.3246   4.4101   4.4362   4.4958   4.6135   4.6460   4.6873   4.7564
     4.9442   4.9623   4.9710   4.9820   5.4564   5.4599   5.4781   5.6924
     5.7185   5.7208   5.7890   5.8032   5.8811   5.8849   5.9304   6.0269
     6.0718   6.0791   6.1546   6.2218   6.2809   6.3791   6.8310   7.1371
     7.4117   7.4221   7.4823   7.5445   7.7177   7.7182   7.8571   7.9435
     8.2801   8.2806   8.4523   8.5921   9.0616   9.0870   9.1926

     the Fermi energy is    -0.5032 ev

!    total energy              =   -3005.52937851 Ry
     Harris-Foulkes estimate   =   -3005.52937852 Ry
     estimated scf accuracy    <       0.00000013 Ry

     The total energy is the sum of the following terms:

     one-electron contribution =  -41017.06553156 Ry
     hartree contribution      =   20574.11827514 Ry
     xc contribution           =    -546.74600471 Ry
     ewald contribution        =   17984.18354342 Ry
     smearing contrib. (-TS)   =      -0.01966079 Ry

     total magnetization       =     0.00 Bohr mag/cell
     absolute magnetization    =     0.01 Bohr mag/cell

     convergence has been achieved in  11 iterations

     Forces acting on atoms (Ry/au):

     negative rho (up, down):  1.352E-02 1.352E-02
     atom    1 type  1   force =     0.00002097   -0.00109802   -0.10420314
     atom    2 type  2   force =     0.00004216    0.00000000    0.03811804
     atom    3 type  1   force =    -0.00011281    0.00000000   -0.02281821
     atom    4 type  2   force =    -0.00614294    0.00312143   -0.00582062
     atom    5 type  1   force =     0.00029760    0.00042009   -0.00079332
     atom    6 type  2   force =    -0.00036369    0.00000000   -0.00020900
     atom    7 type  1   force =    -0.00019749    0.00000000   -0.00248187
     atom    8 type  2   force =     0.00020728    0.00031482   -0.00018759
     atom    9 type  1   force =     0.00002097    0.00109802   -0.10420314
     atom   10 type  2   force =     0.00002760    0.00000000    0.03427093
     atom   11 type  1   force =    -0.00011192    0.00000000    0.01131484
     atom   12 type  2   force =    -0.00614294   -0.00312143   -0.00582062
     atom   13 type  1   force =     0.00029760   -0.00042009   -0.00079332
     atom   14 type  2   force =    -0.00072676    0.00000000   -0.00101502
     atom   15 type  1   force =     0.00035638    0.00000000    0.00129381
     atom   16 type  2   force =     0.00020728   -0.00031482   -0.00018759
     atom   17 type  2   force =     0.00004406    0.00000000    0.06641902
     atom   18 type  1   force =     0.00014104    0.00000000    0.13058781
     atom   19 type  2   force =    -0.00015481    0.00000000   -0.08412748
     atom   20 type  2   force =    -0.05788158    0.00015478   -0.03631608
     atom   21 type  2   force =     0.05803319    0.00017034   -0.03622381
     atom   22 type  1   force =    -0.00003544    0.00087220    0.07794838
     atom   23 type  2   force =    -0.00015833    0.00000000    0.00133294
     atom   24 type  2   force =    -0.00017391    0.00000000   -0.03626893
     atom   25 type  2   force =     0.00592975    0.00307808   -0.00550843
     atom   26 type  1   force =    -0.00035252    0.00000000    0.00029561
     atom   27 type  2   force =     0.00034256    0.00000000    0.00146174
     atom   28 type  2   force =    -0.00017645    0.00033619   -0.00037822
     atom   29 type  2   force =    -0.00034447    0.00015296    0.00006863
     atom   30 type  1   force =     0.00008255    0.00048756    0.00078238
     atom   31 type  2   force =    -0.00049432    0.00000000   -0.00017477
     atom   32 type  2   force =     0.00034422   -0.00025833    0.00002941
     atom   33 type  2   force =    -0.00000790    0.00000000    0.06644406
     atom   34 type  1   force =     0.00011611    0.00000000    0.13039541
     atom   35 type  2   force =    -0.00012823    0.00000000   -0.08357794
     atom   36 type  2   force =    -0.05788158   -0.00015478   -0.03631608
     atom   37 type  2   force =     0.05803319   -0.00017034   -0.03622381
     atom   38 type  1   force =    -0.00003544   -0.00087220    0.07794838
     atom   39 type  2   force =    -0.00007609    0.00000000   -0.00025376
     atom   40 type  2   force =     0.00008320    0.00000000   -0.03527613
     atom   41 type  2   force =     0.00592975   -0.00307808   -0.00550843
     atom   42 type  1   force =    -0.00054404    0.00000000    0.00095718
     atom   43 type  2   force =     0.00040130    0.00000000    0.00161933
     atom   44 type  2   force =    -0.00017645   -0.00033619   -0.00037822
     atom   45 type  2   force =    -0.00034447   -0.00015296    0.00006863
     atom   46 type  1   force =     0.00008255   -0.00048756    0.00078238
     atom   47 type  2   force =     0.00161516    0.00000000    0.00038210
     atom   48 type  2   force =     0.00034422    0.00025833    0.00002941
     atom   49 type  2   force =    -0.02438920    0.00000000   -0.01300792
     atom   50 type  3   force =     0.02415311    0.00000000    0.01552305

     Total force =     0.342461     Total SCF correction =     0.001400
 !ASE

     Writing output data file calc.save

     General routines

     Parallel routines

   This run was terminated on:   2:13:16  11Feb2018

   JOB DONE.