     Program PWSCF v.5.1rc2 (svn rev. ) starts on 10Mar2018 at 13:26:51

     Current dimensions of program PWSCF are:
     Max number of different atomic species (ntypx) = 10
     Max number of k-points (npk) =  40000
     Max angular momentum in pseudopotentials (lmaxx) =  3

     IMPORTANT: XC functional enforced from input :
     Exchange-correlation      = BEEF ( 1  4 27 13 2)
     Any further DFT definition will be discarded
     Please, verify this is what you really want

     Subspace diagonalization in iterative solution of the eigenvalue problem:
     a serial algorithm will be used

     Generating pointlists ...
     new r_m :   0.4125 (alat units)  0.7795 (a.u.) for type    1
     new r_m :   0.4125 (alat units)  0.7795 (a.u.) for type    2
     new r_m :   0.4125 (alat units)  0.7795 (a.u.) for type    3

     bravais-lattice index     =            0
     lattice parameter (alat)  =       1.8897  a.u.
     unit-cell volume          =    7990.9933 (a.u.)^3
     number of atoms/cell      =           51
     number of atomic types    =            3
     number of electrons       =       400.00
     number of Kohn-Sham states=          300
     kinetic-energy cutoff     =      40.4243  Ry
     charge density cutoff     =     404.2426  Ry
     convergence threshold     =      7.3E-07
     mixing beta               =       0.1000
     number of iterations used =           10  plain     mixing
     Exchange-correlation      = BEEF ( 1  4 27 13 2)
     nstep                     =           50

     celldm(1)=   1.889726  celldm(2)=   0.000000  celldm(3)=   0.000000
     celldm(4)=   0.000000  celldm(5)=   0.000000  celldm(6)=   0.000000

     crystal axes: (cart. coord. in units of alat)
               a(1) = (   6.590708   0.000000   0.000000 )
               a(2) = (   0.000000   5.950229   0.000000 )
               a(3) = (   0.000000   0.000000  30.195235 )

     reciprocal axes: (cart. coord. in units 2 pi/alat)
               b(1) = (  0.151729  0.000000  0.000000 )
               b(2) = (  0.000000  0.168061  0.000000 )
               b(3) = (  0.000000  0.000000  0.033118 )

     PseudoPot. # 1 for Ti read from file:
     /home/alatimer/bin/psp/esp_psp_w_gbrvRu/Ti.UPF
     MD5 check sum: 8e4df49b7f0d34bbd5052bf3f5ea0213
     Pseudo is Ultrasoft, Zval = 12.0
     Generated by new atomic code, or converted to UPF format
     Using radial grid of  851 points,  6 beta functions with:
                l(1) =   0
                l(2) =   0
                l(3) =   1
                l(4) =   1
                l(5) =   2
                l(6) =   2
     Q(r) pseudized with  8 coefficients,  rinner =    1.000   1.000   1.000
                                                       1.000   1.000

     PseudoPot. # 2 for  O read from file:
     /home/alatimer/bin/psp/esp_psp_w_gbrvRu/O.UPF
     MD5 check sum: e057bbcf3229fb5d8c36c0c92f9568b4
     Pseudo is Ultrasoft + core correction, Zval =  6.0
     Generated using "atomic" code by A. Dal Corso  v.5.0.2 svn rev. 9415
     Using radial grid of 1095 points,  4 beta functions with:
                l(1) =   0
                l(2) =   0
                l(3) =   1
                l(4) =   1
     Q(r) pseudized with 0 coefficients

     PseudoPot. # 3 for  N read from file:
     /home/alatimer/bin/psp/esp_psp_w_gbrvRu/N.UPF
     MD5 check sum: ed8b6a90f28a53b7d71920e7015d2dd6
     Pseudo is Ultrasoft + core correction, Zval =  5.0
     Generated using "atomic" code by A. Dal Corso  v.5.0.2 svn rev. 9415
     Using radial grid of 1085 points,  4 beta functions with:
                l(1) =   0
                l(2) =   0
                l(3) =   1
                l(4) =   1
     Q(r) pseudized with 0 coefficients

     vdW kernel table read from file vdW_kernel_table
     MD5 check sum: 095c7af220d748ca6e76c0b4c6cfb241

     atomic species   valence    mass     pseudopotential
        Ti1           12.00    47.88000     Ti( 1.00)
        O1             6.00    15.99940      O( 1.00)
        N1             5.00    14.00670      N( 1.00)

     Starting magnetic structure
     atomic species   magnetization
        Ti1          0.250
        O1           0.500
        N1           0.600

     No symmetry found

   Cartesian axes

     site n.     atom                  positions (alat units)
         1           Ti1 tau(   1) = (   1.6476770   0.7437786   2.6545865  )
         2           O1  tau(   2) = (   1.6476770   2.2313359   3.9361215  )
         3           Ti1 tau(   3) = (   1.6476770   2.2313359   5.9499405  )
         4           O1  tau(   4) = (   0.3661420   0.7437786   5.9499405  )
         5           Ti1 tau(   5) = (   1.5280591   0.7315068   9.1973351  )
         6           O1  tau(   6) = (   1.6613943   2.1836906  10.6091769  )
         7           Ti1 tau(   7) = (   1.6665780   2.2096385  12.4157880  )
         8           O1  tau(   8) = (   0.4439715   0.7264440  12.7601561  )
         9           Ti1 tau(   9) = (   1.6476770   3.7188931   2.6545865  )
        10           O1  tau(  10) = (   1.6476770   5.2064503   3.9361215  )
        11           Ti1 tau(  11) = (   1.6476770   5.2064503   5.9499405  )
        12           O1  tau(  12) = (   0.3661420   3.7188931   5.9499405  )
        13           Ti1 tau(  13) = (   1.5319291   3.7072436   9.2118370  )
        14           O1  tau(  14) = (   1.6575607   5.2126413  10.6087893  )
        15           Ti1 tau(  15) = (   1.6606453   5.1916961  12.4165775  )
        16           O1  tau(  16) = (   0.4123725   3.7022030  12.5882193  )
        17           O1  tau(  17) = (   1.6476770   2.2313359   1.3730516  )
        18           Ti1 tau(  18) = (   4.9430310   2.2313359   2.6545865  )
        19           O1  tau(  19) = (   4.9430310   2.2313359   4.6684056  )
        20           O1  tau(  20) = (   6.2245660   0.7437786   2.6545865  )
        21           O1  tau(  21) = (   3.6614961   0.7437786   2.6545865  )
        22           Ti1 tau(  22) = (   4.9430310   0.7437786   5.9499405  )
        23           O1  tau(  23) = (   1.6517842   2.2287041   8.0298356  )
        24           O1  tau(  24) = (   4.9430310   2.2313359   7.2314755  )
        25           O1  tau(  25) = (   2.9292120   0.7437786   5.9499405  )
        26           Ti1 tau(  26) = (   4.8605205   2.2076595   9.4238065  )
        27           O1  tau(  27) = (   4.9553550   2.1639423  11.2756624  )
        28           O1  tau(  28) = (   6.2690671   0.7288246   9.2688367  )
        29           O1  tau(  29) = (   3.6660957   0.7249325   9.2867299  )
        30           Ti1 tau(  30) = (   4.9284588   0.7282168  12.7798302  )
        31           O1  tau(  31) = (   4.9953437   2.2216212  13.8477397  )
        32           O1  tau(  32) = (   2.9112183   0.7266397  12.7651274  )
        33           O1  tau(  33) = (   1.6476770   5.2064503   1.3730516  )
        34           Ti1 tau(  34) = (   4.9430310   5.2064503   2.6545865  )
        35           O1  tau(  35) = (   4.9430310   5.2064503   4.6684056  )
        36           O1  tau(  36) = (   6.2245660   3.7188931   2.6545865  )
        37           O1  tau(  37) = (   3.6614961   3.7188931   2.6545865  )
        38           Ti1 tau(  38) = (   4.9430310   3.7188931   5.9499405  )
        39           O1  tau(  39) = (   1.6524867   5.1852222   8.0294571  )
        40           O1  tau(  40) = (   4.9430310   5.2064503   7.2314755  )
        41           O1  tau(  41) = (   2.9292120   3.7188931   5.9499405  )
        42           Ti1 tau(  42) = (   4.8610151   5.1886528   9.4241876  )
        43           O1  tau(  43) = (   4.9550983   5.2107439  11.2753448  )
        44           O1  tau(  44) = (   6.2713562   3.7024388   9.3047907  )
        45           O1  tau(  45) = (   3.6650622   3.7005085   9.3135888  )
        46           Ti1 tau(  46) = (   5.0160509   3.7038162  12.7585864  )
        47           O1  tau(  47) = (   4.9984032   5.1727849  13.8485277  )
        48           O1  tau(  48) = (   2.9655234   3.7049164  12.5317472  )
        49           O1  tau(  49) = (   2.2548149   3.7063572  14.5693114  )
        50           N1  tau(  50) = (   2.4020298   3.6667063  16.9351815  )
        51           N1  tau(  51) = (   2.1425646   3.6919273  15.8611024  )

     number of k points=    40  Fermi-Dirac smearing, width (Ry)=  0.0073
                       cart. coord. in units 2pi/alat
        k(    1) = (   0.0000000   0.0000000   0.0000000), wk =   0.0277778
        k(    2) = (   0.0000000   0.0280101   0.0000000), wk =   0.0555556
        k(    3) = (   0.0000000   0.0560203   0.0000000), wk =   0.0555556
        k(    4) = (   0.0000000  -0.0840304   0.0000000), wk =   0.0277778
        k(    5) = (   0.0252881   0.0000000   0.0000000), wk =   0.0555556
        k(    6) = (   0.0252881   0.0280101   0.0000000), wk =   0.0555556
        k(    7) = (   0.0252881   0.0560203   0.0000000), wk =   0.0555556
        k(    8) = (   0.0252881  -0.0840304   0.0000000), wk =   0.0555556
        k(    9) = (   0.0505763   0.0000000   0.0000000), wk =   0.0555556
        k(   10) = (   0.0505763   0.0280101   0.0000000), wk =   0.0555556
        k(   11) = (   0.0505763   0.0560203   0.0000000), wk =   0.0555556
        k(   12) = (   0.0505763  -0.0840304   0.0000000), wk =   0.0555556
        k(   13) = (  -0.0758644   0.0000000   0.0000000), wk =   0.0277778
        k(   14) = (  -0.0758644   0.0280101   0.0000000), wk =   0.0555556
        k(   15) = (  -0.0758644   0.0560203   0.0000000), wk =   0.0555556
        k(   16) = (  -0.0758644  -0.0840304   0.0000000), wk =   0.0277778
        k(   17) = (  -0.0252881   0.0280101   0.0000000), wk =   0.0555556
        k(   18) = (  -0.0252881   0.0560203   0.0000000), wk =   0.0555556
        k(   19) = (  -0.0505763   0.0280101   0.0000000), wk =   0.0555556
        k(   20) = (  -0.0505763   0.0560203   0.0000000), wk =   0.0555556
        k(   21) = (   0.0000000   0.0000000   0.0000000), wk =   0.0277778
        k(   22) = (   0.0000000   0.0280101   0.0000000), wk =   0.0555556
        k(   23) = (   0.0000000   0.0560203   0.0000000), wk =   0.0555556
        k(   24) = (   0.0000000  -0.0840304   0.0000000), wk =   0.0277778
        k(   25) = (   0.0252881   0.0000000   0.0000000), wk =   0.0555556
        k(   26) = (   0.0252881   0.0280101   0.0000000), wk =   0.0555556
        k(   27) = (   0.0252881   0.0560203   0.0000000), wk =   0.0555556
        k(   28) = (   0.0252881  -0.0840304   0.0000000), wk =   0.0555556
        k(   29) = (   0.0505763   0.0000000   0.0000000), wk =   0.0555556
        k(   30) = (   0.0505763   0.0280101   0.0000000), wk =   0.0555556
        k(   31) = (   0.0505763   0.0560203   0.0000000), wk =   0.0555556
        k(   32) = (   0.0505763  -0.0840304   0.0000000), wk =   0.0555556
        k(   33) = (  -0.0758644   0.0000000   0.0000000), wk =   0.0277778
        k(   34) = (  -0.0758644   0.0280101   0.0000000), wk =   0.0555556
        k(   35) = (  -0.0758644   0.0560203   0.0000000), wk =   0.0555556
        k(   36) = (  -0.0758644  -0.0840304   0.0000000), wk =   0.0277778
[...]
     atom:   36    charge:    2.0847    magn:   -0.0001    constr:    0.0000
     atom:   37    charge:    2.0847    magn:   -0.0001    constr:    0.0000
     atom:   38    charge:    3.1197    magn:   -0.0000    constr:    0.0000
     atom:   39    charge:    2.0911    magn:    0.0001    constr:    0.0000
     atom:   40    charge:    2.0779    magn:    0.0001    constr:    0.0000
     atom:   41    charge:    2.0869    magn:    0.0000    constr:    0.0000
     atom:   42    charge:    3.1180    magn:   -0.0001    constr:    0.0000
     atom:   43    charge:    2.0839    magn:    0.0002    constr:    0.0000
     atom:   44    charge:    2.0865    magn:    0.0001    constr:    0.0000
     atom:   45    charge:    2.0871    magn:    0.0001    constr:    0.0000
     atom:   46    charge:    3.1172    magn:   -0.0001    constr:    0.0000
     atom:   47    charge:    2.0797    magn:    0.0003    constr:    0.0000
     atom:   48    charge:    2.0834    magn:    0.0002    constr:    0.0000
     atom:   49    charge:    2.0535    magn:   -0.0000    constr:    0.0000
     atom:   50    charge:    1.2583    magn:   -0.0000    constr:    0.0000
     atom:   51    charge:    1.2954    magn:    0.0000    constr:    0.0000

     total energy              =   -3044.96677579 Ry
     Harris-Foulkes estimate   =   -3044.98065203 Ry
     estimated scf accuracy    <       0.08439149 Ry

     total magnetization       =     0.00 Bohr mag/cell
     absolute magnetization    =     0.01 Bohr mag/cell

[...]

     total energy              =   -3044.95483003 Ry
     Harris-Foulkes estimate   =   -3044.95483006 Ry
     estimated scf accuracy    <       0.00000171 Ry

[...]

     iteration # 10     ecut=    40.42 Ry     beta=0.10
     Davidson diagonalization with overlap
     ethr =  4.27E-10,  avg # of iterations =  2.0

     negative rho (up, down):  1.161E-02 1.161E-02

     Magnetic moment per site:
     atom:    1    charge:    3.1250    magn:   -0.0000    constr:    0.0000
     atom:    2    charge:    2.0894    magn:    0.0000    constr:    0.0000
     atom:    3    charge:    3.1196    magn:   -0.0000    constr:    0.0000
     atom:    4    charge:    2.0870    magn:    0.0000    constr:    0.0000
     atom:    5    charge:    3.1170    magn:   -0.0000    constr:    0.0000
     atom:    6    charge:    2.0917    magn:    0.0000    constr:    0.0000
     atom:    7    charge:    3.1184    magn:   -0.0000    constr:    0.0000
     atom:    8    charge:    2.0816    magn:    0.0000    constr:    0.0000
     atom:    9    charge:    3.1250    magn:   -0.0000    constr:    0.0000
     atom:   10    charge:    2.0894    magn:    0.0000    constr:    0.0000
     atom:   11    charge:    3.1196    magn:   -0.0000    constr:    0.0000
     atom:   12    charge:    2.0870    magn:    0.0000    constr:    0.0000
     atom:   13    charge:    3.1148    magn:   -0.0000    constr:    0.0000
     atom:   14    charge:    2.0912    magn:    0.0000    constr:    0.0000
     atom:   15    charge:    3.1194    magn:   -0.0000    constr:    0.0000
     atom:   16    charge:    2.0883    magn:    0.0000    constr:    0.0000
     atom:   17    charge:    2.0624    magn:    0.0000    constr:    0.0000
     atom:   18    charge:    3.1239    magn:   -0.0000    constr:    0.0000
     atom:   19    charge:    2.0878    magn:   -0.0000    constr:    0.0000
     atom:   20    charge:    2.0847    magn:   -0.0000    constr:    0.0000
     atom:   21    charge:    2.0847    magn:   -0.0000    constr:    0.0000
     atom:   22    charge:    3.1197    magn:   -0.0000    constr:    0.0000
     atom:   23    charge:    2.0909    magn:    0.0000    constr:    0.0000
     atom:   24    charge:    2.0777    magn:    0.0000    constr:    0.0000
     atom:   25    charge:    2.0869    magn:    0.0000    constr:    0.0000
     atom:   26    charge:    3.1165    magn:   -0.0000    constr:    0.0000
     atom:   27    charge:    2.0824    magn:    0.0000    constr:    0.0000
     atom:   28    charge:    2.0879    magn:    0.0000    constr:    0.0000
     atom:   29    charge:    2.0877    magn:    0.0000    constr:    0.0000
     atom:   30    charge:    3.1168    magn:   -0.0000    constr:    0.0000
     atom:   31    charge:    2.0816    magn:    0.0000    constr:    0.0000
     atom:   32    charge:    2.0843    magn:    0.0000    constr:    0.0000
     atom:   33    charge:    2.0624    magn:    0.0000    constr:    0.0000
     atom:   34    charge:    3.1239    magn:   -0.0000    constr:    0.0000
     atom:   35    charge:    2.0878    magn:   -0.0000    constr:    0.0000
     atom:   36    charge:    2.0847    magn:   -0.0000    constr:    0.0000
     atom:   37    charge:    2.0847    magn:   -0.0000    constr:    0.0000
     atom:   38    charge:    3.1197    magn:   -0.0000    constr:    0.0000
     atom:   39    charge:    2.0912    magn:    0.0000    constr:    0.0000
     atom:   40    charge:    2.0777    magn:    0.0000    constr:    0.0000
     atom:   41    charge:    2.0869    magn:    0.0000    constr:    0.0000
     atom:   42    charge:    3.1181    magn:   -0.0000    constr:    0.0000
     atom:   43    charge:    2.0838    magn:    0.0000    constr:    0.0000
     atom:   44    charge:    2.0864    magn:    0.0000    constr:    0.0000
     atom:   45    charge:    2.0871    magn:    0.0000    constr:    0.0000
     atom:   46    charge:    3.1171    magn:   -0.0000    constr:    0.0000
     atom:   47    charge:    2.0797    magn:    0.0000    constr:    0.0000
     atom:   48    charge:    2.0834    magn:    0.0000    constr:    0.0000
     atom:   49    charge:    2.0529    magn:    0.0000    constr:    0.0000
     atom:   50    charge:    1.2770    magn:   -0.0000    constr:    0.0000
     atom:   51    charge:    1.3024    magn:    0.0000    constr:    0.0000

     End of self-consistent calculation

 ------ SPIN UP ------------

          k = 0.0000 0.0000 0.0000 ( 34665 PWs)   bands (ev):

   -57.8081 -57.7731 -57.4950 -57.4393 -57.3686 -57.3324 -57.2624 -57.2271
   -57.1647 -57.1293 -57.0997 -57.0643 -56.8686 -56.7959 -56.2705 -56.2352
   -34.2444 -34.0892 -34.0606 -34.0418 -34.0096 -33.9153 -33.8546 -33.8444
   -33.8084 -33.7558 -33.7138 -33.7034 -33.6993 -33.6696 -33.6559 -33.6503
   -33.6311 -33.6219 -33.5980 -33.5409 -33.5054 -33.4437 -33.4394 -33.4231
   -33.4161 -33.4134 -33.3724 -33.3654 -33.3627 -33.3447 -33.3402 -33.3199
   -33.2958 -33.2895 -33.2636 -33.2566 -33.2310 -33.1294 -33.1248 -33.0668
   -33.0234 -32.9230 -32.6892 -32.6216 -32.5956 -32.4931 -32.4014 -32.2932
   -24.5524 -21.2326 -18.1582 -17.9600 -17.7337 -17.6132 -17.4778 -17.4761
   -17.1960 -17.1771 -17.1280 -17.0388 -17.0337 -16.9952 -16.9742 -16.9034
   -16.8561 -16.8458 -16.8209 -16.7808 -16.7222 -16.6742 -16.5544 -16.5342
   -16.5045 -16.4885 -16.4057 -16.2965 -16.2602 -16.2291 -16.0925 -16.0631
   -14.8530 -14.7683  -9.7240  -7.7252  -7.7089  -5.9771  -5.5508  -5.4961
    -5.3424  -5.3341  -5.2788  -4.9797  -4.9224  -4.5705  -4.5687  -4.5322
    -4.5212  -4.4749  -4.3525  -4.2536  -4.2050  -4.1877  -4.1544  -4.1508
    -4.1486  -4.1391  -4.0752  -4.0714  -3.9924  -3.9714  -3.9395  -3.8963
    -3.8654  -3.7879  -3.7574  -3.7329  -3.7025  -3.6283  -3.6067  -3.5313
    -3.5281  -3.5030  -3.4366  -3.3181  -3.1865  -3.1509  -3.0499  -2.9903
    -2.9586  -2.8582  -2.8376  -2.7983  -2.7267  -2.7235  -2.7105  -2.5847
    -2.5466  -2.4915  -2.4192  -2.3827  -2.3552  -2.3348  -2.3093  -2.2657
    -2.2617  -2.2299  -2.1948  -2.1631  -2.1598  -2.0341  -1.9770  -1.8765
    -1.7342  -1.7320  -1.7028  -1.6646  -1.6358  -1.6259  -1.5481  -1.5262
    -1.4267  -1.4163  -1.3927  -1.3808  -1.3734  -1.2661  -1.2158  -1.2067
    -1.1860  -1.1163  -1.0555  -0.9995  -0.9014  -0.7276  -0.6989  -0.6936
    -0.6285  -0.5015  -0.3577  -0.2206  -0.1556   0.0062   0.1326   0.1478
     1.5339   1.5631   1.8490   1.8895   1.8961   1.9197   2.0874   2.1045
     2.1401   2.2577   2.3758   2.3887   2.4223   2.4426   2.4820   2.4976
     2.5417   2.5805   2.6530   2.6837   2.6936   2.7682   2.7830   2.8452
     2.8879   2.9139   3.0025   3.0115   3.0136   3.0399   3.0814   3.1000
     3.1074   3.1151   3.1212   3.1541   3.2548   3.3125   3.3213   3.3690
     3.3986   3.4353   3.4697   3.5482   3.5525   3.6886   3.8945   4.0010
     4.0576   4.0880   4.0995   4.1976   4.2675   4.4745   4.5546   4.6740
     4.9263   4.9508   5.0295   5.1392   5.2208   5.4029   5.4106   5.4378
     5.5160   5.5999   5.6480   5.6530   5.7324   5.7484   5.7533   5.7535
     5.9366   5.9670   6.0258   6.0404   6.1154   6.1589   6.2065   6.2358
     6.4912   6.6205   6.7833   6.7972   6.8957   7.1782   7.2778   7.4440
     7.8974   7.9861   8.1664   8.4063   8.7154   8.8768   8.9187   8.9535
     9.1940   9.2562   9.2960   9.3489

[...]

          k =-0.0759 0.0000 0.0000 ( 34758 PWs)   bands (ev):

[...]

 ------ SPIN DOWN ----------

[...]

          k = 0.0506-0.0840 0.0000 ( 34628 PWs)   bands (ev):

[...]

          k =-0.0506 0.0560 0.0000 ( 34596 PWs)   bands (ev):

   -57.7994 -57.7819 -57.4903 -57.4442 -57.3602 -57.3409 -57.2536 -57.2360
   -57.1560 -57.1382 -57.0910 -57.0732 -56.8649 -56.7999 -56.2619 -56.2442
   -34.1501 -34.0819 -34.0675 -33.9846 -33.9548 -33.9456 -33.9386 -33.7860
   -33.7555 -33.7460 -33.7315 -33.6956 -33.6860 -33.6744 -33.6611 -33.6579
   -33.5699 -33.5622 -33.5550 -33.5191 -33.5149 -33.4998 -33.4667 -33.4473
   -33.4361 -33.4226 -33.3912 -33.3651 -33.3626 -33.3520 -33.3441 -33.3404
   -33.3226 -33.3096 -33.2863 -33.2846 -33.2502 -33.1301 -33.1185 -33.0698
   -33.0414 -33.0185 -32.6171 -32.6016 -32.5927 -32.4706 -32.4247 -32.3949
   -24.5523 -21.2321 -17.8539 -17.6119 -17.4333 -17.4116 -17.3947 -17.3231
   -17.2858 -17.2505 -17.1790 -17.1480 -17.0734 -17.0556 -16.9891 -16.9699
   -16.9677 -16.8973 -16.8868 -16.8195 -16.7822 -16.7554 -16.6906 -16.6449
   -16.5399 -16.4393 -16.3981 -16.2986 -16.2980 -16.2693 -16.2332 -16.1666
   -14.8783 -14.8421  -9.7213  -7.7296  -7.7081  -5.9732  -5.1960  -4.7676
    -4.7154  -4.7038  -4.6653  -4.6305  -4.6197  -4.5835  -4.4776  -4.4604
    -4.4353  -4.4212  -4.3296  -4.2750  -4.2609  -4.2539  -4.2111  -4.1909
    -4.1670  -4.1539  -4.1405  -4.1136  -4.0609  -4.0240  -4.0125  -3.9818
    -3.9275  -3.8685  -3.8031  -3.7675  -3.6647  -3.6360  -3.4924  -3.4664
    -3.4483  -3.3806  -3.3628  -3.1894  -3.1054  -3.0604  -3.0141  -2.9703
    -2.9519  -2.8964  -2.8786  -2.8397  -2.7973  -2.7500  -2.6966  -2.6915
    -2.6206  -2.6030  -2.5751  -2.4979  -2.4697  -2.4508  -2.4345  -2.4120
    -2.3831  -2.3393  -2.2698  -2.2582  -2.2322  -2.2084  -2.1602  -2.1459
    -2.0748  -2.0361  -2.0043  -1.9629  -1.9185  -1.8372  -1.7683  -1.7527
    -1.6852  -1.5852  -1.5115  -1.4675  -1.4324  -1.3543  -1.3172  -1.2084
    -1.1574  -1.1196  -1.0751  -1.0121  -0.9697  -0.9053  -0.8924  -0.8138
    -0.7828  -0.7676  -0.6369  -0.4477  -0.0390  -0.0019   0.0114   0.0675
     1.7557   1.9570   1.9726   2.0379   2.0921   2.1306   2.1427   2.1959
     2.2418   2.2875   2.4061   2.4408   2.4498   2.4767   2.4940   2.5216
     2.6154   2.6317   2.6633   2.6854   2.7388   2.8081   2.8252   2.8674
     2.9139   2.9256   2.9650   2.9967   3.0465   3.0872   3.2114   3.2391
     3.2698   3.2881   3.3413   3.3548   3.3961   3.4077   3.4477   3.4941
     3.5713   3.6263   3.6672   3.7365   3.7664   3.7882   3.8024   3.8197
     3.8606   3.9876   4.0405   4.1665   4.2423   4.4868   4.6676   4.6944
     4.7682   4.7722   4.9163   5.0215   5.0931   5.1579   5.2297   5.2565
     5.3270   5.4842   5.5850   5.6549   5.7075   5.7575   5.8500   5.9891
     6.0318   6.1353   6.1798   6.2279   6.2749   6.3229   6.4823   6.4992
     6.5611   6.6077   6.6433   6.6980   6.8497   6.8824   7.0202   7.3014
     7.3414   7.7372   7.7835   8.0119   8.0920   8.1707   8.5755   8.6693
     8.8518   8.9112   9.1360   9.3576

     the Fermi energy is     0.8816 ev

!    total energy              =   -3044.95482996 Ry
     Harris-Foulkes estimate   =   -3044.95483011 Ry
     estimated scf accuracy    <       0.00000058 Ry

     The total energy is the sum of the following terms:

     one-electron contribution =  -40864.94378467 Ry
     hartree contribution      =   20505.00295174 Ry
     xc contribution           =    -557.23211071 Ry
     ewald contribution        =   17872.21831826 Ry
     smearing contrib. (-TS)   =      -0.00020458 Ry

     total magnetization       =     0.00 Bohr mag/cell
     absolute magnetization    =     0.00 Bohr mag/cell

     convergence has been achieved in  10 iterations

     Forces acting on atoms (Ry/au):

     negative rho (up, down):  1.161E-02 1.161E-02
     atom    1 type  1   force =    -0.00008495    0.00030754   -0.13590704
     atom    2 type  2   force =     0.00010477   -0.00008124    0.07509504
     atom    3 type  1   force =     0.00126580    0.00108932   -0.05973532
     atom    4 type  2   force =     0.00661035   -0.00006647    0.00966253
     atom    5 type  1   force =    -0.00131211   -0.00013983    0.00012937
     atom    6 type  2   force =    -0.00184510   -0.00354451   -0.00918003
     atom    7 type  1   force =     0.01121898    0.00860895   -0.01603426
     atom    8 type  2   force =     0.00035232   -0.00011427    0.00076696
     atom    9 type  1   force =     0.00013043    0.00035095   -0.13598248
     atom   10 type  2   force =     0.00016677   -0.00003211    0.07504229
     atom   11 type  1   force =     0.00126256   -0.00086206   -0.05986424
     atom   12 type  2   force =     0.00604603   -0.00011110    0.00852830
     atom   13 type  1   force =     0.00014135   -0.00015547   -0.00022838
     atom   14 type  2   force =    -0.00202873    0.00296684   -0.00925444
     atom   15 type  1   force =     0.01139956   -0.00843283   -0.01627838
     atom   16 type  2   force =     0.00666803    0.00009079    0.01040661
     atom   17 type  2   force =    -0.00002373   -0.00005551    0.07993355
     atom   18 type  1   force =    -0.00006107    0.00022698    0.11917020
     atom   19 type  2   force =     0.00038969    0.00019051   -0.06818752
     atom   20 type  2   force =    -0.06268981    0.00005177   -0.03211428
     atom   21 type  2   force =     0.06273921    0.00015227   -0.03258805
     atom   22 type  1   force =    -0.00049322   -0.00012585    0.06436473
     atom   23 type  2   force =     0.00015916    0.00061882   -0.00274234
     atom   24 type  2   force =     0.00049529    0.00004041   -0.02247997
     atom   25 type  2   force =    -0.00645414   -0.00025280    0.00821810
     atom   26 type  1   force =    -0.00011111   -0.00005197    0.00256060
     atom   27 type  2   force =     0.00251009   -0.00146169   -0.00234293
     atom   28 type  2   force =    -0.00007803   -0.00001627   -0.00150055
     atom   29 type  2   force =     0.00015104   -0.00005563   -0.00055061
     atom   30 type  1   force =     0.00572098    0.00034173   -0.00102260
     atom   31 type  2   force =    -0.00206081    0.00149836    0.00145431
     atom   32 type  2   force =     0.00173031   -0.00009902    0.00192478
     atom   33 type  2   force =    -0.00000049    0.00015203    0.07999994
     atom   34 type  1   force =    -0.00007646    0.00023518    0.11917885
     atom   35 type  2   force =     0.00035844    0.00032563   -0.06813670
     atom   36 type  2   force =    -0.06268425    0.00009920   -0.03232293
     atom   37 type  2   force =     0.06285229    0.00017153   -0.03207881
     atom   38 type  1   force =    -0.00069540    0.00000920    0.06419954
     atom   39 type  2   force =     0.00019499   -0.00081983   -0.00272652
     atom   40 type  2   force =     0.00060582   -0.00227503   -0.02263752
     atom   41 type  2   force =    -0.00619728   -0.00030758    0.00761817
     atom   42 type  1   force =    -0.00009745   -0.00009154    0.00256636
     atom   43 type  2   force =     0.00256663    0.00145561   -0.00238270
     atom   44 type  2   force =     0.00032419   -0.00012932   -0.00074040
     atom   45 type  2   force =    -0.00018907   -0.00006321   -0.00096292
     atom   46 type  1   force =    -0.01920066    0.00042578   -0.00540125
     atom   47 type  2   force =    -0.00206481   -0.00133576    0.00146479
     atom   48 type  2   force =    -0.00084826   -0.00044637   -0.02831503
     atom   49 type  2   force =    -0.05012548    0.00086687    0.17100344
     atom   50 type  3   force =    -0.00245661   -0.00127019    0.10548806
     atom   51 type  3   force =     0.03571394    0.00212118   -0.20707832

     Total force =     0.474532     Total SCF correction =     0.001330
 !ASE

     Writing output data file calc.save

     General routines

     Parallel routines

   This run was terminated on:  14:14: 7  10Mar2018

   JOB DONE.