     Program PWSCF v.5.1rc2 (svn rev. ) starts on 13Feb2018 at  0:48:30

     Current dimensions of program PWSCF are:
     Max number of different atomic species (ntypx) = 10
     Max number of k-points (npk) =  40000
     Max angular momentum in pseudopotentials (lmaxx) =  3

     IMPORTANT: XC functional enforced from input :
     Exchange-correlation      = BEEF ( 1  4 27 13 2)
     Any further DFT definition will be discarded
     Please, verify this is what you really want

     Subspace diagonalization in iterative solution of the eigenvalue problem:
     a serial algorithm will be used

     Generating pointlists ...
     new r_m :   0.4125 (alat units)  0.7795 (a.u.) for type    1
     new r_m :   0.3969 (alat units)  0.7500 (a.u.) for type    2
     new r_m :   0.4125 (alat units)  0.7795 (a.u.) for type    3
     new r_m :   0.3969 (alat units)  0.7500 (a.u.) for type    4

     bravais-lattice index     =            0
     lattice parameter (alat)  =       1.8897  a.u.
     unit-cell volume          =    7990.9933 (a.u.)^3
     number of atoms/cell      =           54
     number of atomic types    =            4
     number of electrons       =       398.00
     number of Kohn-Sham states=          299
     kinetic-energy cutoff     =      40.4243  Ry
     charge density cutoff     =     404.2426  Ry
     convergence threshold     =      7.3E-07
     mixing beta               =       0.1000
     number of iterations used =           10  plain     mixing
     Exchange-correlation      = BEEF ( 1  4 27 13 2)
     nstep                     =           50

     celldm(1)=   1.889726  celldm(2)=   0.000000  celldm(3)=   0.000000
     celldm(4)=   0.000000  celldm(5)=   0.000000  celldm(6)=   0.000000

     crystal axes: (cart. coord. in units of alat)
               a(1) = (   6.590708   0.000000   0.000000 )
               a(2) = (   0.000000   5.950229   0.000000 )
               a(3) = (   0.000000   0.000000  30.195235 )

     reciprocal axes: (cart. coord. in units 2 pi/alat)
               b(1) = (  0.151729  0.000000  0.000000 )
               b(2) = (  0.000000  0.168061  0.000000 )
               b(3) = (  0.000000  0.000000  0.033118 )

     PseudoPot. # 1 for Ti read from file:
     /home/alatimer/bin/psp/esp_psp_w_gbrvRu/Ti.UPF
     MD5 check sum: 8e4df49b7f0d34bbd5052bf3f5ea0213
     Pseudo is Ultrasoft, Zval = 12.0
     Generated by new atomic code, or converted to UPF format
     Using radial grid of  851 points,  6 beta functions with:
                l(1) =   0
                l(2) =   0
                l(3) =   1
                l(4) =   1
                l(5) =   2
                l(6) =   2
     Q(r) pseudized with  8 coefficients,  rinner =    1.000   1.000   1.000
                                                       1.000   1.000

     PseudoPot. # 2 for  O read from file:
     /home/alatimer/bin/psp/esp_psp_w_gbrvRu/O.UPF
     MD5 check sum: e057bbcf3229fb5d8c36c0c92f9568b4
     Pseudo is Ultrasoft + core correction, Zval =  6.0
     Generated using "atomic" code by A. Dal Corso  v.5.0.2 svn rev. 9415
     Using radial grid of 1095 points,  4 beta functions with:
                l(1) =   0
                l(2) =   0
                l(3) =   1
                l(4) =   1
     Q(r) pseudized with 0 coefficients

     PseudoPot. # 3 for  C read from file:
     /home/alatimer/bin/psp/esp_psp_w_gbrvRu/C.UPF
     MD5 check sum: ab446d787031eba755f1d5ee46644bb0
     Pseudo is Ultrasoft + core correction, Zval =  4.0
     Generated using "atomic" code by A. Dal Corso  v.5.0.2 svn rev. 9415
     Using radial grid of 1073 points,  4 beta functions with:
                l(1) =   0
                l(2) =   0
                l(3) =   1
                l(4) =   1
     Q(r) pseudized with 0 coefficients

     PseudoPot. # 4 for  H read from file:
     /home/alatimer/bin/psp/esp_psp_w_gbrvRu/H.UPF
     MD5 check sum: bd57da0722753ddfd9833a65b40bb853
     Pseudo is Ultrasoft, Zval =  1.0
     Generated using "atomic" code by A. Dal Corso  v.5.0.2 svn rev. 9415
     Using radial grid of  929 points,  2 beta functions with:
                l(1) =   0
                l(2) =   0
     Q(r) pseudized with 0 coefficients

     vdW kernel table read from file vdW_kernel_table
     MD5 check sum: 095c7af220d748ca6e76c0b4c6cfb241

     atomic species   valence    mass     pseudopotential
        Ti1           12.00    47.88000     Ti( 1.00)
        O1             6.00    15.99940      O( 1.00)
        C1             4.00    12.01100      C( 1.00)
        H1             1.00     1.00794      H( 1.00)

     Starting magnetic structure
     atomic species   magnetization
        Ti1          0.250
        O1           0.500
        C1           0.750
        H1           0.000

     No symmetry found

   Cartesian axes

     site n.     atom                  positions (alat units)
         1           Ti1 tau(   1) = (   1.6476770   0.7437786   2.6545865  )
         2           O1  tau(   2) = (   1.6476770   2.2313359   3.9361215  )
         3           Ti1 tau(   3) = (   1.6476770   2.2313359   5.9499405  )
         4           O1  tau(   4) = (   0.3661420   0.7437786   5.9499405  )
         5           Ti1 tau(   5) = (   1.7592931   0.7557636   9.1813031  )
         6           O1  tau(   6) = (   1.6162490   2.2572048  10.5951269  )
         7           Ti1 tau(   7) = (   1.5595004   2.2680265  12.4668274  )
         8           O1  tau(   8) = (   0.3709531   0.7738127  12.6996540  )
         9           Ti1 tau(   9) = (   1.6476770   3.7188931   2.6545865  )
        10           O1  tau(  10) = (   1.6476770   5.2064503   3.9361215  )
        11           Ti1 tau(  11) = (   1.6476770   5.2064503   5.9499405  )
        12           O1  tau(  12) = (   0.3661420   3.7188931   5.9499405  )
        13           Ti1 tau(  13) = (   1.7607536   3.7112867   9.1949733  )
        14           O1  tau(  14) = (   1.6133076   5.2250699  10.5465640  )
        15           Ti1 tau(  15) = (   1.6492307   5.2431137  12.3448001  )
        16           O1  tau(  16) = (   0.3719744   3.7598389  12.7007434  )
        17           O1  tau(  17) = (   1.6476770   2.2313359   1.3730516  )
        18           Ti1 tau(  18) = (   4.9430310   2.2313359   2.6545865  )
        19           O1  tau(  19) = (   4.9430310   2.2313359   4.6684056  )
        20           O1  tau(  20) = (   6.2245660   0.7437786   2.6545865  )
        21           O1  tau(  21) = (   3.6614961   0.7437786   2.6545865  )
        22           Ti1 tau(  22) = (   4.9430310   0.7437786   5.9499405  )
        23           O1  tau(  23) = (   1.6387103   2.2391978   8.0037664  )
        24           O1  tau(  24) = (   4.9430310   2.2313359   7.2314755  )
        25           O1  tau(  25) = (   2.9292120   0.7437786   5.9499405  )
        26           Ti1 tau(  26) = (   5.0158092   2.2383949   9.3973727  )
        27           O1  tau(  27) = (   4.9391445   2.2276729  11.2675731  )
        28           O1  tau(  28) = (   6.2094020   0.7514556   9.2742047  )
        29           O1  tau(  29) = (   3.6131301   0.7515640   9.2682932  )
        30           Ti1 tau(  30) = (   4.8940083   0.8207741  12.7348365  )
        31           O1  tau(  31) = (   4.8487174   2.2703822  13.8475395  )
        32           O1  tau(  32) = (   2.8766274   0.7418004  12.6316555  )
        33           O1  tau(  33) = (   1.6476770   5.2064503   1.3730516  )
        34           Ti1 tau(  34) = (   4.9430310   5.2064503   2.6545865  )
        35           O1  tau(  35) = (   4.9430310   5.2064503   4.6684056  )
        36           O1  tau(  36) = (   6.2245660   3.7188931   2.6545865  )
        37           O1  tau(  37) = (   3.6614961   3.7188931   2.6545865  )
        38           Ti1 tau(  38) = (   4.9430310   3.7188931   5.9499405  )
        39           O1  tau(  39) = (   1.6418458   5.2133935   8.0066417  )
        40           O1  tau(  40) = (   4.9430310   5.2064503   7.2314755  )
        41           O1  tau(  41) = (   2.9292120   3.7188931   5.9499405  )
        42           Ti1 tau(  42) = (   5.0218241   5.2139137   9.3870600  )
        43           O1  tau(  43) = (   4.9399496   5.2040061  11.2598200  )
        44           O1  tau(  44) = (   6.2073000   3.7245411   9.2731052  )
        45           O1  tau(  45) = (   3.6137513   3.7232133   9.2682466  )
        46           Ti1 tau(  46) = (   4.8936935   3.8094630  12.7397413  )
        47           O1  tau(  47) = (   4.9051259   5.2510468  13.8339921  )
        48           O1  tau(  48) = (   2.8743370   3.7938830  12.6403791  )
        49           C1  tau(  49) = (   1.0587210   2.2268971  15.9066084  )
        50           O1  tau(  50) = (   1.8917182   2.2355032  14.7378010  )
        51           H1  tau(  51) = (   0.0310076   2.2200215  15.5603933  )
        52           H1  tau(  52) = (   2.8355400   2.2288152  14.9243747  )
        53           H1  tau(  53) = (   1.2478062   1.3326534  16.5039879  )
        54           H1  tau(  54) = (   1.2341453   3.1195140  16.5098874  )

     number of k points=    40  Fermi-Dirac smearing, width (Ry)=  0.0073
                       cart. coord. in units 2pi/alat
        k(    1) = (   0.0000000   0.0000000   0.0000000), wk =   0.0277778
        k(    2) = (   0.0000000   0.0280101   0.0000000), wk =   0.0555556
        k(    3) = (   0.0000000   0.0560203   0.0000000), wk =   0.0555556
        k(    4) = (   0.0000000  -0.0840304   0.0000000), wk =   0.0277778
        k(    5) = (   0.0252881   0.0000000   0.0000000), wk =   0.0555556
        k(    6) = (   0.0252881   0.0280101   0.0000000), wk =   0.0555556
        k(    7) = (   0.0252881   0.0560203   0.0000000), wk =   0.0555556
        k(    8) = (   0.0252881  -0.0840304   0.0000000), wk =   0.0555556
        k(    9) = (   0.0505763   0.0000000   0.0000000), wk =   0.0555556
        k(   10) = (   0.0505763   0.0280101   0.0000000), wk =   0.0555556
        k(   11) = (   0.0505763   0.0560203   0.0000000), wk =   0.0555556
        k(   12) = (   0.0505763  -0.0840304   0.0000000), wk =   0.0555556
        k(   13) = (  -0.0758644   0.0000000   0.0000000), wk =   0.0277778
        k(   14) = (  -0.0758644   0.0280101   0.0000000), wk =   0.0555556
        k(   15) = (  -0.0758644   0.0560203   0.0000000), wk =   0.0555556
        k(   16) = (  -0.0758644  -0.0840304   0.0000000), wk =   0.0277778
        k(   17) = (  -0.0252881   0.0280101   0.0000000), wk =   0.0555556
        k(   18) = (  -0.0252881   0.0560203   0.0000000), wk =   0.0555556
        k(   19) = (  -0.0505763   0.0280101   0.0000000), wk =   0.0555556
        k(   20) = (  -0.0505763   0.0560203   0.0000000), wk =   0.0555556
        k(   21) = (   0.0000000   0.0000000   0.0000000), wk =   0.0277778
        k(   22) = (   0.0000000   0.0280101   0.0000000), wk =   0.0555556
        k(   23) = (   0.0000000   0.0560203   0.0000000), wk =   0.0555556
        k(   24) = (   0.0000000  -0.0840304   0.0000000), wk =   0.0277778
        k(   25) = (   0.0252881   0.0000000   0.0000000), wk =   0.0555556
        k(   26) = (   0.0252881   0.0280101   0.0000000), wk =   0.0555556
[...]
     atom:   44    charge:    1.9245    magn:   -0.0001    constr:    0.0000
     atom:   45    charge:    1.9196    magn:   -0.0001    constr:    0.0000
     atom:   46    charge:    3.1165    magn:    0.0000    constr:    0.0000
     atom:   47    charge:    1.9168    magn:   -0.0000    constr:    0.0000
     atom:   48    charge:    1.9167    magn:   -0.0001    constr:    0.0000
     atom:   49    charge:    0.6579    magn:   -0.0001    constr:    0.0000
     atom:   50    charge:    1.9305    magn:   -0.0001    constr:    0.0000
     atom:   51    charge:    0.3969    magn:    0.0000    constr:    0.0000
     atom:   52    charge:    0.3987    magn:    0.0000    constr:    0.0000
     atom:   53    charge:    0.3977    magn:    0.0000    constr:    0.0000
     atom:   54    charge:    0.3984    magn:    0.0000    constr:    0.0000

     total energy              =   -3021.41996467 Ry
     Harris-Foulkes estimate   =   -3021.42009748 Ry
     estimated scf accuracy    <       0.00129948 Ry

     total magnetization       =     0.00 Bohr mag/cell
     absolute magnetization    =     0.01 Bohr mag/cell

[...]

     total energy              =   -3021.41988501 Ry
     Harris-Foulkes estimate   =   -3021.41988515 Ry
     estimated scf accuracy    <       0.00000251 Ry

[...]

     iteration #  8     ecut=    40.42 Ry     beta=0.10
     Davidson diagonalization with overlap
     ethr =  6.30E-10,  avg # of iterations =  3.0

     negative rho (up, down):  1.209E-02 1.209E-02

     Magnetic moment per site:
     atom:    1    charge:    3.1250    magn:   -0.0000    constr:    0.0000
     atom:    2    charge:    1.9174    magn:    0.0000    constr:    0.0000
     atom:    3    charge:    3.1198    magn:    0.0000    constr:    0.0000
     atom:    4    charge:    1.9231    magn:   -0.0000    constr:    0.0000
     atom:    5    charge:    3.1166    magn:    0.0000    constr:    0.0000
     atom:    6    charge:    1.9205    magn:   -0.0000    constr:    0.0000
     atom:    7    charge:    3.1157    magn:    0.0000    constr:    0.0000
     atom:    8    charge:    1.9180    magn:   -0.0000    constr:    0.0000
     atom:    9    charge:    3.1250    magn:   -0.0000    constr:    0.0000
     atom:   10    charge:    1.9174    magn:    0.0000    constr:    0.0000
     atom:   11    charge:    3.1197    magn:    0.0000    constr:    0.0000
     atom:   12    charge:    1.9231    magn:   -0.0000    constr:    0.0000
     atom:   13    charge:    3.1158    magn:    0.0000    constr:    0.0000
     atom:   14    charge:    1.9318    magn:   -0.0000    constr:    0.0000
     atom:   15    charge:    3.1188    magn:    0.0000    constr:    0.0000
     atom:   16    charge:    1.9177    magn:   -0.0000    constr:    0.0000
     atom:   17    charge:    1.8905    magn:    0.0001    constr:    0.0000
     atom:   18    charge:    3.1239    magn:   -0.0000    constr:    0.0000
     atom:   19    charge:    1.9129    magn:   -0.0000    constr:    0.0000
     atom:   20    charge:    1.9198    magn:    0.0000    constr:    0.0000
     atom:   21    charge:    1.9198    magn:    0.0000    constr:    0.0000
     atom:   22    charge:    3.1196    magn:    0.0000    constr:    0.0000
     atom:   23    charge:    1.9295    magn:   -0.0000    constr:    0.0000
     atom:   24    charge:    1.9119    magn:   -0.0000    constr:    0.0000
     atom:   25    charge:    1.9232    magn:   -0.0000    constr:    0.0000
     atom:   26    charge:    3.1145    magn:    0.0000    constr:    0.0000
     atom:   27    charge:    1.9121    magn:   -0.0000    constr:    0.0000
     atom:   28    charge:    1.9243    magn:   -0.0000    constr:    0.0000
     atom:   29    charge:    1.9202    magn:   -0.0000    constr:    0.0000
     atom:   30    charge:    3.1167    magn:    0.0000    constr:    0.0000
     atom:   31    charge:    1.9178    magn:   -0.0000    constr:    0.0000
     atom:   32    charge:    1.9167    magn:   -0.0000    constr:    0.0000
     atom:   33    charge:    1.8905    magn:    0.0001    constr:    0.0000
     atom:   34    charge:    3.1239    magn:   -0.0000    constr:    0.0000
     atom:   35    charge:    1.9129    magn:   -0.0000    constr:    0.0000
     atom:   36    charge:    1.9198    magn:    0.0000    constr:    0.0000
     atom:   37    charge:    1.9198    magn:    0.0000    constr:    0.0000
     atom:   38    charge:    3.1196    magn:    0.0000    constr:    0.0000
     atom:   39    charge:    1.9275    magn:   -0.0000    constr:    0.0000
     atom:   40    charge:    1.9122    magn:   -0.0000    constr:    0.0000
     atom:   41    charge:    1.9232    magn:   -0.0000    constr:    0.0000
     atom:   42    charge:    3.1141    magn:    0.0000    constr:    0.0000
     atom:   43    charge:    1.9144    magn:   -0.0000    constr:    0.0000
     atom:   44    charge:    1.9245    magn:   -0.0000    constr:    0.0000
     atom:   45    charge:    1.9196    magn:   -0.0000    constr:    0.0000
     atom:   46    charge:    3.1165    magn:    0.0000    constr:    0.0000
     atom:   47    charge:    1.9170    magn:   -0.0000    constr:    0.0000
     atom:   48    charge:    1.9166    magn:   -0.0000    constr:    0.0000
     atom:   49    charge:    0.6577    magn:   -0.0000    constr:    0.0000
     atom:   50    charge:    1.9315    magn:   -0.0000    constr:    0.0000
     atom:   51    charge:    0.3968    magn:    0.0000    constr:    0.0000
     atom:   52    charge:    0.3995    magn:    0.0000    constr:    0.0000
     atom:   53    charge:    0.3977    magn:    0.0000    constr:    0.0000
     atom:   54    charge:    0.3984    magn:    0.0000    constr:    0.0000

     End of self-consistent calculation

 ------ SPIN UP ------------

          k = 0.0000 0.0000 0.0000 ( 34665 PWs)   bands (ev):

   -57.7032 -57.6683 -57.3230 -57.2867 -57.2365 -57.1144 -57.0780 -57.0770
   -57.0573 -57.0422 -56.9955 -56.9601 -56.7378 -56.7003 -56.1538 -56.1185
   -34.1393 -33.9854 -33.9569 -33.9042 -33.8753 -33.8099 -33.7494 -33.6584
   -33.6236 -33.6099 -33.5722 -33.5460 -33.5240 -33.5130 -33.4951 -33.4891
   -33.4694 -33.4595 -33.4373 -33.4035 -33.3287 -33.2967 -33.2765 -33.2672
   -33.2612 -33.2597 -33.2502 -33.2476 -33.2416 -33.2351 -33.2341 -33.2172
   -33.1858 -33.1856 -33.1792 -33.1464 -33.1237 -33.0037 -32.9857 -32.9647
   -32.9152 -32.8125 -32.5716 -32.5061 -32.4801 -32.3758 -32.2841 -32.1758
   -20.3076 -18.0179 -17.8460 -17.5622 -17.4676 -17.3782 -17.2569 -17.0826
   -17.0708 -16.9797 -16.9433 -16.8887 -16.7895 -16.7829 -16.7352 -16.7121
   -16.7098 -16.6682 -16.6156 -16.6112 -16.5407 -16.4211 -16.4090 -16.4027
   -16.3279 -16.2724 -16.1997 -16.1724 -16.1547 -15.9874 -15.9358 -14.7382
   -14.6545 -11.5063  -7.2580  -5.4750  -5.3994  -5.3171  -5.2105  -5.1982
    -5.1507  -5.1326  -4.8439  -4.8222  -4.4767  -4.4483  -4.3645  -4.3607
    -4.3270  -4.2371  -4.0950  -4.0664  -4.0609  -4.0225  -4.0045  -3.9964
    -3.9651  -3.9582  -3.9558  -3.8448  -3.7945  -3.7719  -3.7420  -3.7233
    -3.6378  -3.6224  -3.5929  -3.5831  -3.5245  -3.5125  -3.4136  -3.3981
    -3.3747  -3.2703  -3.2404  -3.1891  -3.0186  -2.9412  -2.8832  -2.8330
    -2.6986  -2.6133  -2.5945  -2.5846  -2.5830  -2.5743  -2.4378  -2.4195
    -2.3407  -2.2737  -2.2518  -2.2098  -2.2056  -2.1714  -2.1437  -2.0979
    -2.0529  -2.0325  -2.0254  -1.8893  -1.8711  -1.7669  -1.7415  -1.6288
    -1.5490  -1.5462  -1.4957  -1.4860  -1.4681  -1.4283  -1.3299  -1.3142
    -1.3074  -1.2850  -1.2479  -1.1413  -1.0918  -1.0855  -1.0726  -1.0278
    -0.9598  -0.9210  -0.8245  -0.7701  -0.6152  -0.5923  -0.5738  -0.4858
    -0.3819  -0.2464  -0.0891  -0.0315   0.1269   0.2438   0.2575   1.6383
     1.6707   1.9810   1.9977   2.0602   2.0894   2.2003   2.2387   2.2818
     2.4247   2.4922   2.5209   2.5264   2.5375   2.6261   2.6444   2.6527
     2.7101   2.7946   2.8208   2.8333   2.9051   2.9945   3.0278   3.0937
     3.1010   3.1089   3.1565   3.1975   3.2031   3.2222   3.2347   3.2459
     3.2563   3.2836   3.3908   3.4273   3.4510   3.4607   3.5240   3.5804
     3.6473   3.6898   3.8023   3.9768   4.0111   4.0852   4.1756   4.3217
     4.3331   4.3875   4.5909   4.5983   4.8078   4.8331   5.0831   5.1615
     5.2429   5.3263   5.4776   5.5130   5.5308   5.5870   5.6739   5.7060
     5.7953   5.8607   5.8715   5.8831   5.9494   6.0408   6.0436   6.0700
     6.1401   6.2245   6.2372   6.2918   6.3736   6.5810   6.6309   6.7541
     6.8357   7.0162   7.0452   7.1696   7.2980   7.5811   7.9125   8.2507
     8.3460   8.6903   8.7913   8.8734   8.9385   9.0102   9.1785   9.2582
     9.3496   9.3843   9.5382

[...]

          k =-0.0759 0.0000 0.0000 ( 34758 PWs)   bands (ev):

[...]

 ------ SPIN DOWN ----------

[...]

          k = 0.0506-0.0840 0.0000 ( 34628 PWs)   bands (ev):

[...]

          k =-0.0506 0.0560 0.0000 ( 34596 PWs)   bands (ev):

   -57.6946 -57.6771 -57.3140 -57.2957 -57.2352 -57.1059 -57.0861 -57.0686
   -57.0585 -57.0510 -56.9867 -56.9689 -56.7287 -56.7093 -56.1453 -56.1276
   -34.0450 -33.9782 -33.9639 -33.8793 -33.8498 -33.8333 -33.7785 -33.6011
   -33.5793 -33.5773 -33.5403 -33.5266 -33.5204 -33.5155 -33.4805 -33.4779
   -33.4577 -33.4325 -33.4092 -33.3581 -33.3235 -33.3225 -33.3055 -33.3034
   -33.2910 -33.2810 -33.2722 -33.2667 -33.2587 -33.2581 -33.2521 -33.2440
   -33.2157 -33.2059 -33.1761 -33.1705 -33.1324 -32.9949 -32.9849 -32.9690
   -32.9331 -32.9099 -32.5016 -32.4862 -32.4752 -32.3534 -32.3075 -32.2776
   -20.3066 -17.7112 -17.5049 -17.2964 -17.2446 -17.2030 -17.1781 -17.1666
   -17.0951 -17.0413 -17.0106 -16.9183 -16.8615 -16.8538 -16.8498 -16.8114
   -16.7808 -16.7282 -16.6677 -16.6283 -16.6185 -16.5552 -16.5170 -16.4052
   -16.3489 -16.2680 -16.2313 -16.1983 -16.1608 -16.1214 -16.0445 -14.7642
   -14.7286 -11.5012  -7.2480  -5.4264  -5.2111  -5.0270  -4.6635  -4.6217
    -4.5206  -4.5043  -4.4891  -4.4619  -4.4377  -4.3724  -4.3294  -4.3063
    -4.2305  -4.2104  -4.1507  -4.1367  -4.0878  -4.0726  -4.0511  -4.0421
    -4.0199  -4.0018  -3.9738  -3.9200  -3.8994  -3.8929  -3.8275  -3.7927
    -3.7358  -3.6646  -3.6352  -3.5277  -3.4921  -3.3747  -3.3333  -3.2668
    -3.2598  -3.2499  -3.1325  -3.0155  -2.9374  -2.9094  -2.8552  -2.8335
    -2.7612  -2.7310  -2.6891  -2.6151  -2.5962  -2.5726  -2.5352  -2.4947
    -2.4330  -2.4099  -2.3711  -2.3341  -2.3213  -2.3048  -2.2600  -2.1837
    -2.1577  -2.1259  -2.1194  -2.0821  -2.0524  -2.0078  -1.9896  -1.9067
    -1.8966  -1.8569  -1.8382  -1.7295  -1.6426  -1.6111  -1.5780  -1.4835
    -1.4140  -1.3801  -1.3126  -1.2542  -1.2113  -1.1155  -1.0786  -1.0221
    -1.0066  -0.9417  -0.8579  -0.8251  -0.7752  -0.7617  -0.6981  -0.6616
    -0.6560  -0.5227  -0.3294   0.0739   0.1081   0.1261   0.1896   1.8626
     2.0725   2.1607   2.1944   2.2165   2.2394   2.2938   2.3429   2.3882
     2.3994   2.5332   2.5655   2.5748   2.6031   2.6234   2.6785   2.7501
     2.7778   2.7995   2.8338   2.8761   2.9588   2.9993   3.0238   3.0572
     3.0926   3.1313   3.1629   3.2520   3.3310   3.3624   3.3920   3.4360
     3.4737   3.4949   3.5165   3.5373   3.6105   3.6423   3.7064   3.7396
     3.7743   3.8450   3.8748   3.9151   3.9209   3.9490   4.1075   4.1706
     4.2852   4.4687   4.7258   4.8027   4.8117   4.8920   4.9365   5.0888
     5.1604   5.2299   5.2680   5.3399   5.3684   5.4298   5.4912   5.6212
     5.7771   5.8289   5.8776   5.9488   6.0435   6.1208   6.2139   6.2557
     6.2829   6.3466   6.4115   6.4466   6.5081   6.5747   6.6471   6.7123
     6.7266   6.8215   6.8576   6.9807   7.0591   7.4080   7.4355   7.5847
     7.7501   7.9457   8.0751   8.3944   8.5764   8.6127   8.7445   9.0146
     9.2266   9.3255   9.4512

     the Fermi energy is     0.9929 ev

!    total energy              =   -3021.41988518 Ry
     Harris-Foulkes estimate   =   -3021.41988530 Ry
     estimated scf accuracy    <       0.00000058 Ry

     The total energy is the sum of the following terms:

     one-electron contribution =  -41243.22938995 Ry
     hartree contribution      =   20695.79194662 Ry
     xc contribution           =    -553.69724518 Ry
     ewald contribution        =   18079.71501459 Ry
     smearing contrib. (-TS)   =      -0.00021127 Ry

     total magnetization       =     0.00 Bohr mag/cell
     absolute magnetization    =     0.00 Bohr mag/cell

     convergence has been achieved in   8 iterations

     Forces acting on atoms (Ry/au):

     negative rho (up, down):  1.209E-02 1.209E-02
     atom    1 type  1   force =     0.00001789   -0.00035494   -0.13382509
     atom    2 type  2   force =     0.00000726    0.00002877    0.07215289
     atom    3 type  1   force =    -0.00135625    0.00031001   -0.06099372
     atom    4 type  2   force =     0.00290107    0.00048791    0.00639382
     atom    5 type  1   force =     0.00026115    0.00191091    0.00351689
     atom    6 type  2   force =     0.00009141    0.00000709   -0.00305803
     atom    7 type  1   force =    -0.00126101   -0.00072861    0.00480102
     atom    8 type  2   force =     0.00086166   -0.00033117   -0.00078236
     atom    9 type  1   force =    -0.00002562    0.00002000   -0.13358204
     atom   10 type  2   force =    -0.00006638    0.00006680    0.07133426
     atom   11 type  1   force =    -0.00131774   -0.00024161   -0.05590922
     atom   12 type  2   force =     0.00299557   -0.00006777    0.00611076
     atom   13 type  1   force =     0.00028187   -0.00154106    0.00345879
     atom   14 type  2   force =    -0.00118067   -0.00038578   -0.00283317
     atom   15 type  1   force =    -0.00079177    0.00019977    0.00454196
     atom   16 type  2   force =     0.00050682   -0.00007395   -0.00015582
     atom   17 type  2   force =    -0.00006831   -0.00007156    0.07938941
     atom   18 type  1   force =     0.00013735   -0.00017211    0.11908330
     atom   19 type  2   force =    -0.00010509   -0.00017305   -0.06666344
     atom   20 type  2   force =    -0.06322513    0.00014809   -0.03223845
     atom   21 type  2   force =     0.06320679    0.00001575   -0.03244235
     atom   22 type  1   force =     0.00072654    0.00108106    0.05972023
     atom   23 type  2   force =    -0.00017307    0.00005762   -0.00174152
     atom   24 type  2   force =    -0.00142903   -0.00000307   -0.02322386
     atom   25 type  2   force =    -0.00312615    0.00058943    0.00787802
     atom   26 type  1   force =     0.00064954    0.00029176    0.00453055
     atom   27 type  2   force =     0.00052166    0.00059105   -0.00374334
     atom   28 type  2   force =     0.00012426   -0.00009262   -0.00118118
     atom   29 type  2   force =     0.00023773   -0.00034965   -0.00056988
     atom   30 type  1   force =     0.00059643   -0.00101348    0.00373287
     atom   31 type  2   force =    -0.00036422    0.00011857   -0.00245191
     atom   32 type  2   force =     0.00014702    0.00004655   -0.00105890
     atom   33 type  2   force =    -0.00011759    0.00003751    0.07899022
     atom   34 type  1   force =     0.00007090   -0.00021903    0.11899892
     atom   35 type  2   force =    -0.00030125   -0.00005339   -0.06636219
     atom   36 type  2   force =    -0.06318480   -0.00005273   -0.03232555
     atom   37 type  2   force =     0.06333621   -0.00020310   -0.03248141
     atom   38 type  1   force =     0.00066421   -0.00098208    0.05993719
     atom   39 type  2   force =    -0.00046019    0.00010585   -0.00248049
     atom   40 type  2   force =    -0.00118458    0.00030668   -0.02213768
     atom   41 type  2   force =    -0.00316610   -0.00015155    0.00790627
     atom   42 type  1   force =     0.00052433    0.00006493    0.00364899
     atom   43 type  2   force =     0.00065866    0.00023845   -0.00290725
     atom   44 type  2   force =     0.00021208    0.00010488   -0.00114046
     atom   45 type  2   force =     0.00021619    0.00031327   -0.00060183
     atom   46 type  1   force =     0.00081201    0.00060277    0.00385902
     atom   47 type  2   force =     0.00005546   -0.00033223   -0.00143050
     atom   48 type  2   force =     0.00021460    0.00001331   -0.00081615
     atom   49 type  3   force =     0.00272970   -0.00072754    0.00352991
     atom   50 type  2   force =    -0.01274924   -0.00005247   -0.01221700
     atom   51 type  4   force =     0.00035473    0.00005435   -0.00062097
     atom   52 type  4   force =     0.01097488    0.00020361    0.00944273
     atom   53 type  4   force =     0.00015550    0.00102679   -0.00055302
     atom   54 type  4   force =     0.00040267   -0.00066898   -0.00042923

     Total force =     0.363330     Total SCF correction =     0.001387
 !ASE

     Writing output data file calc.save

     General routines

     Parallel routines

   This run was terminated on:   1:30: 0  13Feb2018

   JOB DONE.