     Program PWSCF v.5.1rc2 (svn rev. ) starts on 10Feb2018 at 22:32:31

     Current dimensions of program PWSCF are:
     Max number of different atomic species (ntypx) = 10
     Max number of k-points (npk) =  40000
     Max angular momentum in pseudopotentials (lmaxx) =  3

     IMPORTANT: XC functional enforced from input :
     Exchange-correlation      = BEEF ( 1  4 27 13 2)
     Any further DFT definition will be discarded
     Please, verify this is what you really want

     Subspace diagonalization in iterative solution of the eigenvalue problem:
     a serial algorithm will be used

     Generating pointlists ...
     new r_m :   0.4125 (alat units)  0.7795 (a.u.) for type    1
     new r_m :   0.3887 (alat units)  0.7345 (a.u.) for type    2
     new r_m :   0.3887 (alat units)  0.7345 (a.u.) for type    3

     bravais-lattice index     =            0
     lattice parameter (alat)  =       1.8897  a.u.
     unit-cell volume          =    7990.9933 (a.u.)^3
     number of atoms/cell      =           50
     number of atomic types    =            3
     number of electrons       =       391.00
     number of Kohn-Sham states=          295
     kinetic-energy cutoff     =      40.4243  Ry
     charge density cutoff     =     404.2426  Ry
     convergence threshold     =      7.3E-07
     mixing beta               =       0.1000
     number of iterations used =           10  plain     mixing
     Exchange-correlation      = BEEF ( 1  4 27 13 2)
     nstep                     =           50

     celldm(1)=   1.889726  celldm(2)=   0.000000  celldm(3)=   0.000000
     celldm(4)=   0.000000  celldm(5)=   0.000000  celldm(6)=   0.000000

     crystal axes: (cart. coord. in units of alat)
               a(1) = (   6.590708   0.000000   0.000000 )
               a(2) = (   0.000000   5.950229   0.000000 )
               a(3) = (   0.000000   0.000000  30.195235 )

     reciprocal axes: (cart. coord. in units 2 pi/alat)
               b(1) = (  0.151729  0.000000  0.000000 )
               b(2) = (  0.000000  0.168061  0.000000 )
               b(3) = (  0.000000  0.000000  0.033118 )

     PseudoPot. # 1 for Ti read from file:
     /home/alatimer/bin/psp/esp_psp_w_gbrvRu/Ti.UPF
     MD5 check sum: 8e4df49b7f0d34bbd5052bf3f5ea0213
     Pseudo is Ultrasoft, Zval = 12.0
     Generated by new atomic code, or converted to UPF format
     Using radial grid of  851 points,  6 beta functions with:
                l(1) =   0
                l(2) =   0
                l(3) =   1
                l(4) =   1
                l(5) =   2
                l(6) =   2
     Q(r) pseudized with  8 coefficients,  rinner =    1.000   1.000   1.000
                                                       1.000   1.000

     PseudoPot. # 2 for  O read from file:
     /home/alatimer/bin/psp/esp_psp_w_gbrvRu/O.UPF
     MD5 check sum: e057bbcf3229fb5d8c36c0c92f9568b4
     Pseudo is Ultrasoft + core correction, Zval =  6.0
     Generated using "atomic" code by A. Dal Corso  v.5.0.2 svn rev. 9415
     Using radial grid of 1095 points,  4 beta functions with:
                l(1) =   0
                l(2) =   0
                l(3) =   1
                l(4) =   1
     Q(r) pseudized with 0 coefficients

     PseudoPot. # 3 for  H read from file:
     /home/alatimer/bin/psp/esp_psp_w_gbrvRu/H.UPF
     MD5 check sum: bd57da0722753ddfd9833a65b40bb853
     Pseudo is Ultrasoft, Zval =  1.0
     Generated using "atomic" code by A. Dal Corso  v.5.0.2 svn rev. 9415
     Using radial grid of  929 points,  2 beta functions with:
                l(1) =   0
                l(2) =   0
     Q(r) pseudized with 0 coefficients

     vdW kernel table read from file vdW_kernel_table
     MD5 check sum: 095c7af220d748ca6e76c0b4c6cfb241

     atomic species   valence    mass     pseudopotential
        Ti1           12.00    47.88000     Ti( 1.00)
        O1             6.00    15.99940      O( 1.00)
        H1             1.00     1.00794      H( 1.00)

     Starting magnetic structure
     atomic species   magnetization
        Ti1          0.250
        O1           0.500
        H1           0.000

      2 Sym. Ops. (no inversion) found ( 1 have fractional translation)

   Cartesian axes

     site n.     atom                  positions (alat units)
         1           Ti1 tau(   1) = (   1.6476770   0.7437786   2.6545865  )
         2           O1  tau(   2) = (   1.6476770   2.2313359   3.9361215  )
         3           Ti1 tau(   3) = (   1.6476770   2.2313359   5.9499405  )
         4           O1  tau(   4) = (   0.3661420   0.7437786   5.9499405  )
         5           Ti1 tau(   5) = (   1.6423058   0.7993178   9.2289010  )
         6           O1  tau(   6) = (   1.6406404   2.2313359  10.4535548  )
         7           Ti1 tau(   7) = (   1.6373334   2.2313359  13.0586656  )
         8           O1  tau(   8) = (   0.3716334   0.7231912  12.7369480  )
         9           Ti1 tau(   9) = (   1.6476770   3.7188931   2.6545865  )
        10           O1  tau(  10) = (   1.6476770   5.2064503   3.9361215  )
        11           Ti1 tau(  11) = (   1.6476770   5.2064503   5.9499405  )
        12           O1  tau(  12) = (   0.3661420   3.7188931   5.9499405  )
        13           Ti1 tau(  13) = (   1.6423059   3.6633529   9.2289023  )
        14           O1  tau(  14) = (   1.6396028   5.2064504  10.5374954  )
        15           Ti1 tau(  15) = (   1.6366369   5.2064504  12.3426698  )
        16           O1  tau(  16) = (   0.3716333   3.7394800  12.7369475  )
        17           O1  tau(  17) = (   1.6476770   2.2313359   1.3730516  )
        18           Ti1 tau(  18) = (   4.9430310   2.2313359   2.6545865  )
        19           O1  tau(  19) = (   4.9430310   2.2313359   4.6684056  )
        20           O1  tau(  20) = (   6.2245660   0.7437786   2.6545865  )
        21           O1  tau(  21) = (   3.6614961   0.7437786   2.6545865  )
        22           Ti1 tau(  22) = (   4.9430310   0.7437786   5.9499405  )
        23           O1  tau(  23) = (   1.6444126   2.2313359   7.9291264  )
        24           O1  tau(  24) = (   4.9430310   2.2313359   7.2314755  )
        25           O1  tau(  25) = (   2.9292120   0.7437786   5.9499405  )
        26           Ti1 tau(  26) = (   4.9374203   2.2313360   9.4425711  )
        27           O1  tau(  27) = (   4.9384755   2.2313359  11.2756104  )
        28           O1  tau(  28) = (   6.2333856   0.7395591   9.2701299  )
        29           O1  tau(  29) = (   3.6424277   0.7403199   9.2676498  )
        30           Ti1 tau(  30) = (   4.9388558   0.7382018  12.7898683  )
        31           O1  tau(  31) = (   4.8884434   2.2313358  13.8602379  )
        32           O1  tau(  32) = (   2.8718067   0.7224686  12.6922084  )
        33           O1  tau(  33) = (   1.6476770   5.2064503   1.3730516  )
        34           Ti1 tau(  34) = (   4.9430310   5.2064503   2.6545865  )
        35           O1  tau(  35) = (   4.9430310   5.2064503   4.6684056  )
        36           O1  tau(  36) = (   6.2245660   3.7188931   2.6545865  )
        37           O1  tau(  37) = (   3.6614961   3.7188931   2.6545865  )
        38           Ti1 tau(  38) = (   4.9430310   3.7188931   5.9499405  )
        39           O1  tau(  39) = (   1.6444418   5.2064506   7.9393866  )
        40           O1  tau(  40) = (   4.9430310   5.2064503   7.2314755  )
        41           O1  tau(  41) = (   2.9292120   3.7188931   5.9499405  )
        42           Ti1 tau(  42) = (   4.9387790   5.2064503   9.4241858  )
        43           O1  tau(  43) = (   4.9379278   5.2064504  11.2756977  )
        44           O1  tau(  44) = (   6.2333855   3.7231127   9.2701299  )
        45           O1  tau(  45) = (   3.6424278   3.7223520   9.2676499  )
        46           Ti1 tau(  46) = (   4.9388558   3.7244696  12.7898683  )
        47           O1  tau(  47) = (   4.8902929   5.2064502  13.8618696  )
        48           O1  tau(  48) = (   2.8718066   3.7402036  12.6922086  )
        49           O1  tau(  49) = (   1.7618258   2.2313358  14.8494317  )
        50           H1  tau(  50) = (   2.5707197   2.2313366  15.3328018  )

     number of k points=    32  Fermi-Dirac smearing, width (Ry)=  0.0073
                       cart. coord. in units 2pi/alat
        k(    1) = (   0.0000000   0.0000000   0.0000000), wk =   0.0277778
        k(    2) = (   0.0000000   0.0280101   0.0000000), wk =   0.0555556
        k(    3) = (   0.0000000   0.0560203   0.0000000), wk =   0.0555556
        k(    4) = (   0.0000000  -0.0840304   0.0000000), wk =   0.0277778
        k(    5) = (   0.0252881   0.0000000   0.0000000), wk =   0.0555556
        k(    6) = (   0.0252881   0.0280101   0.0000000), wk =   0.1111111
        k(    7) = (   0.0252881   0.0560203   0.0000000), wk =   0.1111111
        k(    8) = (   0.0252881  -0.0840304   0.0000000), wk =   0.0555556
        k(    9) = (   0.0505763   0.0000000   0.0000000), wk =   0.0555556
        k(   10) = (   0.0505763   0.0280101   0.0000000), wk =   0.1111111
        k(   11) = (   0.0505763   0.0560203   0.0000000), wk =   0.1111111
        k(   12) = (   0.0505763  -0.0840304   0.0000000), wk =   0.0555556
        k(   13) = (  -0.0758644   0.0000000   0.0000000), wk =   0.0277778
        k(   14) = (  -0.0758644   0.0280101   0.0000000), wk =   0.0555556
        k(   15) = (  -0.0758644   0.0560203   0.0000000), wk =   0.0555556
        k(   16) = (  -0.0758644  -0.0840304   0.0000000), wk =   0.0277778
        k(   17) = (   0.0000000   0.0000000   0.0000000), wk =   0.0277778
        k(   18) = (   0.0000000   0.0280101   0.0000000), wk =   0.0555556
        k(   19) = (   0.0000000   0.0560203   0.0000000), wk =   0.0555556
        k(   20) = (   0.0000000  -0.0840304   0.0000000), wk =   0.0277778
        k(   21) = (   0.0252881   0.0000000   0.0000000), wk =   0.0555556
        k(   22) = (   0.0252881   0.0280101   0.0000000), wk =   0.1111111
        k(   23) = (   0.0252881   0.0560203   0.0000000), wk =   0.1111111
        k(   24) = (   0.0252881  -0.0840304   0.0000000), wk =   0.0555556
        k(   25) = (   0.0505763   0.0000000   0.0000000), wk =   0.0555556
        k(   26) = (   0.0505763   0.0280101   0.0000000), wk =   0.1111111
        k(   27) = (   0.0505763   0.0560203   0.0000000), wk =   0.1111111
        k(   28) = (   0.0505763  -0.0840304   0.0000000), wk =   0.0555556
        k(   29) = (  -0.0758644   0.0000000   0.0000000), wk =   0.0277778
        k(   30) = (  -0.0758644   0.0280101   0.0000000), wk =   0.0555556
        k(   31) = (  -0.0758644   0.0560203   0.0000000), wk =   0.0555556
        k(   32) = (  -0.0758644  -0.0840304   0.0000000), wk =   0.0277778

     Largest allocated arrays     est. size (Mb)     dimensions
     Largest temporary arrays     est. size (Mb)     dimensions

     Check: negative/imaginary core charge=   -0.000049    0.000000

     The initial density is read from file :
     ./calc.save/charge-density.dat

     negative rho (up, down):  1.350E-02 1.350E-02

     *
     * You are using vdW-DF for exchange-correlation in this calculation.
[...]
     atom:   33    charge:    1.8106    magn:    0.0010    constr:    0.0000
     atom:   34    charge:    3.1239    magn:    0.0000    constr:    0.0000
     atom:   35    charge:    1.8314    magn:    0.0000    constr:    0.0000
     atom:   36    charge:    1.8344    magn:    0.0000    constr:    0.0000
     atom:   37    charge:    1.8344    magn:    0.0000    constr:    0.0000
     atom:   38    charge:    3.1199    magn:    0.0000    constr:    0.0000
     atom:   39    charge:    1.8329    magn:   -0.0001    constr:    0.0000
     atom:   40    charge:    1.8262    magn:   -0.0002    constr:    0.0000
     atom:   41    charge:    1.8361    magn:   -0.0000    constr:    0.0000
     atom:   42    charge:    3.1217    magn:    0.0001    constr:    0.0000
     atom:   43    charge:    1.8288    magn:   -0.0002    constr:    0.0000
     atom:   44    charge:    1.8338    magn:   -0.0002    constr:    0.0000
     atom:   45    charge:    1.8330    magn:   -0.0002    constr:    0.0000
     atom:   46    charge:    3.1193    magn:    0.0000    constr:    0.0000
     atom:   47    charge:    1.8318    magn:   -0.0001    constr:    0.0000
     atom:   48    charge:    1.8337    magn:   -0.0001    constr:    0.0000
     atom:   49    charge:    1.8488    magn:    0.0000    constr:    0.0000
     atom:   50    charge:    0.3915    magn:   -0.0000    constr:    0.0000

     total energy              =   -3005.52880001 Ry
     Harris-Foulkes estimate   =   -3005.52959969 Ry
     estimated scf accuracy    <       0.00521320 Ry

     total magnetization       =     0.00 Bohr mag/cell
     absolute magnetization    =     0.01 Bohr mag/cell

     iteration #  2     ecut=    40.42 Ry     beta=0.10
     Davidson diagonalization with overlap
     ethr =  1.33E-06,  avg # of iterations =  2.0

[...]

     total energy              =   -3005.52866269 Ry
     Harris-Foulkes estimate   =   -3005.52866280 Ry
     estimated scf accuracy    <       0.00000220 Ry

[...]

     iteration # 10     ecut=    40.42 Ry     beta=0.10
     Davidson diagonalization with overlap
     ethr =  5.62E-10,  avg # of iterations =  2.0

     negative rho (up, down):  1.351E-02 1.351E-02

     Magnetic moment per site:
     atom:    1    charge:    3.1244    magn:   -0.0001    constr:    0.0000
     atom:    2    charge:    1.8358    magn:    0.0001    constr:    0.0000
     atom:    3    charge:    3.1200    magn:   -0.0000    constr:    0.0000
     atom:    4    charge:    1.8361    magn:    0.0000    constr:    0.0000
     atom:    5    charge:    3.1144    magn:    0.0000    constr:    0.0000
     atom:    6    charge:    1.8294    magn:   -0.0000    constr:    0.0000
     atom:    7    charge:    3.1161    magn:    0.0000    constr:    0.0000
     atom:    8    charge:    1.8334    magn:   -0.0000    constr:    0.0000
     atom:    9    charge:    3.1244    magn:   -0.0001    constr:    0.0000
     atom:   10    charge:    1.8359    magn:    0.0001    constr:    0.0000
     atom:   11    charge:    3.1198    magn:   -0.0000    constr:    0.0000
     atom:   12    charge:    1.8361    magn:    0.0000    constr:    0.0000
     atom:   13    charge:    3.1144    magn:    0.0000    constr:    0.0000
     atom:   14    charge:    1.8423    magn:   -0.0000    constr:    0.0000
     atom:   15    charge:    3.1165    magn:    0.0000    constr:    0.0000
     atom:   16    charge:    1.8334    magn:   -0.0000    constr:    0.0000
     atom:   17    charge:    1.8106    magn:    0.0004    constr:    0.0000
     atom:   18    charge:    3.1239    magn:   -0.0000    constr:    0.0000
     atom:   19    charge:    1.8314    magn:    0.0000    constr:    0.0000
     atom:   20    charge:    1.8344    magn:    0.0000    constr:    0.0000
     atom:   21    charge:    1.8344    magn:    0.0000    constr:    0.0000
     atom:   22    charge:    3.1199    magn:    0.0000    constr:    0.0000
     atom:   23    charge:    1.8399    magn:   -0.0000    constr:    0.0000
     atom:   24    charge:    1.8258    magn:   -0.0000    constr:    0.0000
     atom:   25    charge:    1.8361    magn:    0.0000    constr:    0.0000
     atom:   26    charge:    3.1143    magn:    0.0000    constr:    0.0000
     atom:   27    charge:    1.8290    magn:   -0.0001    constr:    0.0000
     atom:   28    charge:    1.8338    magn:   -0.0001    constr:    0.0000
     atom:   29    charge:    1.8331    magn:   -0.0001    constr:    0.0000
     atom:   30    charge:    3.1193    magn:    0.0000    constr:    0.0000
     atom:   31    charge:    1.8318    magn:   -0.0000    constr:    0.0000
     atom:   32    charge:    1.8338    magn:   -0.0000    constr:    0.0000
     atom:   33    charge:    1.8105    magn:    0.0004    constr:    0.0000
     atom:   34    charge:    3.1239    magn:   -0.0000    constr:    0.0000
     atom:   35    charge:    1.8314    magn:    0.0000    constr:    0.0000
     atom:   36    charge:    1.8344    magn:    0.0000    constr:    0.0000
     atom:   37    charge:    1.8344    magn:    0.0000    constr:    0.0000
     atom:   38    charge:    3.1199    magn:    0.0000    constr:    0.0000
     atom:   39    charge:    1.8329    magn:   -0.0000    constr:    0.0000
     atom:   40    charge:    1.8262    magn:   -0.0000    constr:    0.0000
     atom:   41    charge:    1.8361    magn:    0.0000    constr:    0.0000
     atom:   42    charge:    3.1217    magn:    0.0000    constr:    0.0000
     atom:   43    charge:    1.8288    magn:   -0.0001    constr:    0.0000
     atom:   44    charge:    1.8338    magn:   -0.0001    constr:    0.0000
     atom:   45    charge:    1.8331    magn:   -0.0001    constr:    0.0000
     atom:   46    charge:    3.1193    magn:    0.0000    constr:    0.0000
     atom:   47    charge:    1.8318    magn:   -0.0000    constr:    0.0000
     atom:   48    charge:    1.8338    magn:   -0.0000    constr:    0.0000
     atom:   49    charge:    1.8509    magn:   -0.0000    constr:    0.0000
     atom:   50    charge:    0.3937    magn:   -0.0000    constr:    0.0000

     End of self-consistent calculation

 ------ SPIN UP ------------

          k = 0.0000 0.0000 0.0000 ( 34665 PWs)   bands (ev):

   -58.5114 -58.4763 -57.6001 -57.5707 -57.5644 -57.4880 -57.4752 -57.4356
   -57.3460 -57.3096 -57.2688 -57.2332 -57.1241 -57.0888 -57.0169 -56.9789
   -34.9562 -34.7803 -34.7515 -34.7177 -34.6227 -34.5658 -34.0993 -34.0552
   -34.0176 -33.8741 -33.8531 -33.7950 -33.7733 -33.7675 -33.7581 -33.7493
   -33.7446 -33.7317 -33.7061 -33.7001 -33.6978 -33.6775 -33.6669 -33.6626
   -33.6554 -33.6551 -33.6403 -33.6055 -33.5565 -33.5502 -33.5428 -33.5093
   -33.5016 -33.4943 -33.4650 -33.4506 -33.4394 -33.4380 -33.4243 -33.3899
   -33.3424 -33.2942 -33.2527 -33.2505 -33.2306 -33.2057 -33.1510 -33.0976
   -18.6750 -18.3974 -18.2486 -18.0170 -17.9169 -17.7492 -17.7349 -17.6368
   -17.5967 -17.5737 -17.4624 -17.2664 -17.2241 -17.2175 -17.1538 -17.0552
   -17.0333 -17.0128 -16.9449 -16.9034 -16.8564 -16.8212 -16.8124 -16.7892
   -16.6954 -16.6334 -16.6185 -16.5178 -16.5025 -16.3489 -16.2857 -15.8044
   -15.7440  -6.2531  -6.0827  -5.6984  -5.5021  -5.4209  -5.3190  -5.1926
    -5.1715  -5.0834  -4.9524  -4.8607  -4.8051  -4.7923  -4.7205  -4.6458
    -4.6176  -4.5492  -4.5359  -4.4224  -4.4198  -4.3620  -4.3483  -4.2535
    -4.2301  -4.1751  -4.1127  -4.1012  -4.0936  -4.0813  -3.9991  -3.9833
    -3.9153  -3.8450  -3.8387  -3.7478  -3.7406  -3.7330  -3.6253  -3.6170
    -3.5890  -3.4760  -3.4528  -3.4146  -3.3025  -3.1358  -3.0953  -3.0427
    -2.9799  -2.9631  -2.9005  -2.8859  -2.8835  -2.7757  -2.7577  -2.7408
    -2.6501  -2.5964  -2.5146  -2.4372  -2.4338  -2.4023  -2.3411  -2.2881
    -2.2377  -2.1822  -2.1755  -2.1268  -2.0853  -2.0795  -1.9326  -1.8510
    -1.8335  -1.8293  -1.8193  -1.7176  -1.6274  -1.5707  -1.5608  -1.5262
    -1.5173  -1.5071  -1.4550  -1.3712  -1.3502  -1.3325  -1.3144  -1.2921
    -1.2801  -1.1638  -1.0729  -0.9959  -0.9570  -0.8870  -0.8762  -0.8235
    -0.7568  -0.7202  -0.6701  -0.3771   0.8202   0.9175   1.2105   1.4933
     1.6008   1.6868   1.7163   1.8088   1.8409   1.9151   1.9511   2.0186
     2.0228   2.1693   2.1840   2.2557   2.2812   2.3100   2.3907   2.4143
     2.4624   2.4709   2.5061   2.5194   2.6019   2.6245   2.6698   2.7157
     2.7385   2.7505   2.7952   2.8271   2.8546   2.8737   2.8784   2.9929
     3.0066   3.0324   3.2090   3.2092   3.2362   3.2457   3.3462   3.4050
     3.4353   3.4978   3.5932   3.7436   3.8765   3.8899   4.0776   4.2684
     4.4012   4.4770   4.5015   4.6446   4.7898   4.9223   4.9607   5.0523
     5.1850   5.1987   5.2289   5.2443   5.3349   5.3392   5.3617   5.4561
     5.4774   5.5249   5.6891   5.7083   5.7899   5.8760   5.9023   5.9076
     5.9981   6.0340   6.2239   6.2872   6.3408   6.4139   6.5839   6.6073
     7.1078   7.8011   7.9884   8.0224   8.2187   8.3010   8.5732   8.7204
     8.8014   9.0632   9.1904   9.2314   9.3702   9.4850   9.6284

[...]

          k =-0.0759 0.0000 0.0000 ( 34758 PWs)   bands (ev):

[...]

 ------ SPIN DOWN ----------

[...]

          k = 0.0506-0.0840 0.0000 ( 34628 PWs)   bands (ev):

[...]

          k =-0.0759-0.0840 0.0000 ( 34556 PWs)   bands (ev):

   -58.4948 -58.4931 -57.5821 -57.5821 -57.5670 -57.4920 -57.4640 -57.4467
   -57.3406 -57.3150 -57.2550 -57.2469 -57.1070 -57.1070 -56.9987 -56.9970
   -34.7669 -34.7661 -34.7647 -34.7644 -34.6697 -34.6681 -33.9072 -33.9067
   -33.9014 -33.8871 -33.8490 -33.8067 -33.8066 -33.7951 -33.7799 -33.7763
   -33.7703 -33.7614 -33.7299 -33.7006 -33.6953 -33.6759 -33.6756 -33.6674
   -33.6673 -33.6277 -33.5934 -33.5689 -33.5679 -33.5655 -33.5589 -33.5245
   -33.4859 -33.4830 -33.4788 -33.4677 -33.4534 -33.4534 -33.3521 -33.3517
   -33.3453 -33.3350 -33.2986 -33.2982 -33.2433 -33.2421 -33.2367 -33.2298
   -18.3885 -18.0195 -18.0192 -17.9493 -17.9473 -17.7069 -17.6632 -17.6619
   -17.6599 -17.3901 -17.2622 -17.2538 -17.2516 -17.1613 -17.1544 -17.1016
   -17.0610 -17.0153 -16.9993 -16.9847 -16.9836 -16.9795 -16.9746 -16.7747
   -16.7523 -16.7394 -16.7364 -16.6469 -16.6444 -16.4632 -16.4433 -15.8539
   -15.8538  -6.0727  -5.0899  -5.0802  -5.0114  -5.0093  -4.8776  -4.8774
    -4.8743  -4.8687  -4.6236  -4.6192  -4.6146  -4.5524  -4.4896  -4.4187
    -4.4163  -4.4149  -4.3816  -4.3676  -4.3533  -4.3418  -4.3238  -4.2744
    -4.2713  -4.2438  -4.2408  -4.2241  -4.1149  -4.0618  -3.9981  -3.9781
    -3.9443  -3.8691  -3.8547  -3.8520  -3.7362  -3.6574  -3.6466  -3.6425
    -3.5187  -3.5160  -3.3621  -3.3610  -3.3497  -3.3141  -3.2452  -3.2103
    -3.1446  -3.1168  -3.0606  -3.0506  -3.0162  -3.0024  -2.9840  -2.9039
    -2.8567  -2.7646  -2.7284  -2.6849  -2.6436  -2.6135  -2.5790  -2.5583
    -2.5323  -2.4571  -2.4302  -2.4251  -2.3932  -2.3407  -2.2859  -2.2528
    -2.1384  -2.0692  -2.0568  -2.0439  -1.9261  -1.8593  -1.8503  -1.6975
    -1.6587  -1.6335  -1.6199  -1.5955  -1.3534  -1.3115  -1.2950  -1.2867
    -1.2567  -1.2067  -1.1290  -1.0441  -0.9830  -0.9509  -0.9376  -0.9012
    -0.8781  -0.8440  -0.7755  -0.7623   1.3972   1.4012   1.4128   1.4186
     1.7605   1.7612   1.8891   1.8909   2.0409   2.0986   2.1013   2.1551
     2.2277   2.2566   2.3519   2.4233   2.4313   2.5000   2.5326   2.5813
     2.5941   2.6290   2.7513   2.7556   2.7672   2.7838   2.8013   2.8300
     2.8793   2.9044   2.9460   3.0350   3.0383   3.0417   3.0638   3.0792
     3.1567   3.1879   3.1900   3.2256   3.2529   3.2777   3.2926   3.2944
     3.3572   3.3845   3.5334   3.6091   3.6831   3.6850   3.9364   3.9368
     4.3328   4.4204   4.4465   4.5057   4.6189   4.6545   4.6971   4.7521
     4.9548   4.9727   4.9807   4.9843   5.4658   5.4707   5.4887   5.7010
     5.7282   5.7305   5.8004   5.8136   5.8907   5.8947   5.9414   6.0360
     6.0797   6.0873   6.1644   6.2315   6.2920   6.3898   6.8324   7.1274
     7.4104   7.4218   7.4720   7.5324   7.7108   7.7132   7.8496   7.9377
     8.2753   8.2760   8.4450   8.5916   9.0568   9.0855   9.1862

     the Fermi energy is    -0.4931 ev

!    total energy              =   -3005.52866264 Ry
     Harris-Foulkes estimate   =   -3005.52866288 Ry
     estimated scf accuracy    <       0.00000062 Ry

     The total energy is the sum of the following terms:

     one-electron contribution =  -41015.48677777 Ry
     hartree contribution      =   20573.43428088 Ry
     xc contribution           =    -546.75458397 Ry
     ewald contribution        =   17983.29806062 Ry
     smearing contrib. (-TS)   =      -0.01964240 Ry

     total magnetization       =     0.00 Bohr mag/cell
     absolute magnetization    =     0.01 Bohr mag/cell

     convergence has been achieved in  10 iterations

     Forces acting on atoms (Ry/au):

     negative rho (up, down):  1.351E-02 1.351E-02
     atom    1 type  1   force =     0.00001940   -0.00109866   -0.10418270
     atom    2 type  2   force =     0.00003993    0.00000000    0.03815842
     atom    3 type  1   force =    -0.00011353    0.00000000   -0.02284957
     atom    4 type  2   force =    -0.00613398    0.00312202   -0.00579920
     atom    5 type  1   force =     0.00029886    0.00034922   -0.00092208
     atom    6 type  2   force =    -0.00037531    0.00000000    0.00006375
     atom    7 type  1   force =     0.00090468    0.00000000   -0.00059335
     atom    8 type  2   force =     0.00036204    0.00031692   -0.00022736
     atom    9 type  1   force =     0.00001940    0.00109866   -0.10418270
     atom   10 type  2   force =     0.00002830    0.00000000    0.03430824
     atom   11 type  1   force =    -0.00011325    0.00000000    0.01129060
     atom   12 type  2   force =    -0.00613398   -0.00312202   -0.00579920
     atom   13 type  1   force =     0.00029886   -0.00034922   -0.00092208
     atom   14 type  2   force =    -0.00072648    0.00000000   -0.00099279
     atom   15 type  1   force =     0.00042480    0.00000000    0.00122883
     atom   16 type  2   force =     0.00036204   -0.00031692   -0.00022736
     atom   17 type  2   force =     0.00004319    0.00000000    0.06633134
     atom   18 type  1   force =     0.00014181    0.00000000    0.13064028
     atom   19 type  2   force =    -0.00015569    0.00000000   -0.08411989
     atom   20 type  2   force =    -0.05788574    0.00015404   -0.03630340
     atom   21 type  2   force =     0.05803496    0.00017050   -0.03620962
     atom   22 type  1   force =    -0.00003489    0.00087315    0.07796544
     atom   23 type  2   force =    -0.00015992    0.00000000    0.00142657
     atom   24 type  2   force =    -0.00017317    0.00000000   -0.03628655
     atom   25 type  2   force =     0.00592143    0.00307934   -0.00548366
     atom   26 type  1   force =    -0.00035762    0.00000000    0.00030441
     atom   27 type  2   force =     0.00033325    0.00000000    0.00136212
     atom   28 type  2   force =    -0.00016110    0.00034215   -0.00038706
     atom   29 type  2   force =    -0.00035652    0.00015683    0.00006115
     atom   30 type  1   force =    -0.00009467    0.00089984    0.00107437
     atom   31 type  2   force =    -0.00017708    0.00000000   -0.00070482
     atom   32 type  2   force =     0.00010330   -0.00021426   -0.00006130
     atom   33 type  2   force =    -0.00000813    0.00000000    0.06635493
     atom   34 type  1   force =     0.00011491    0.00000000    0.13044854
     atom   35 type  2   force =    -0.00013132    0.00000000   -0.08356636
     atom   36 type  2   force =    -0.05788574   -0.00015404   -0.03630340
     atom   37 type  2   force =     0.05803496   -0.00017050   -0.03620962
     atom   38 type  1   force =    -0.00003489   -0.00087315    0.07796544
     atom   39 type  2   force =    -0.00007504    0.00000000   -0.00018580
     atom   40 type  2   force =     0.00008572    0.00000000   -0.03529307
     atom   41 type  2   force =     0.00592143   -0.00307934   -0.00548366
     atom   42 type  1   force =    -0.00054527    0.00000000    0.00098302
     atom   43 type  2   force =     0.00039981    0.00000000    0.00151954
     atom   44 type  2   force =    -0.00016110   -0.00034215   -0.00038706
     atom   45 type  2   force =    -0.00035652   -0.00015683    0.00006115
     atom   46 type  1   force =    -0.00009467   -0.00089984    0.00107437
     atom   47 type  2   force =     0.00164023    0.00000000    0.00042402
     atom   48 type  2   force =     0.00010330    0.00021426   -0.00006130
     atom   49 type  2   force =    -0.04486845    0.00000000   -0.02647206
     atom   50 type  3   force =     0.04367747    0.00000000    0.02717052

     Total force =     0.347924     Total SCF correction =     0.002737
 !ASE

     Writing output data file calc.save

     General routines

     Parallel routines

   This run was terminated on:  23:12: 0  10Feb2018

   JOB DONE.