     Program PWSCF v.5.1rc2 (svn rev. ) starts on 10Feb2018 at 19: 3: 5

     Current dimensions of program PWSCF are:
     Max number of different atomic species (ntypx) = 10
     Max number of k-points (npk) =  40000
     Max angular momentum in pseudopotentials (lmaxx) =  3

     IMPORTANT: XC functional enforced from input :
     Exchange-correlation      = BEEF ( 1  4 27 13 2)
     Any further DFT definition will be discarded
     Please, verify this is what you really want

     Subspace diagonalization in iterative solution of the eigenvalue problem:
     a serial algorithm will be used

     Generating pointlists ...
     new r_m :   0.4125 (alat units)  0.7795 (a.u.) for type    1
     new r_m :   0.4125 (alat units)  0.7795 (a.u.) for type    2

     bravais-lattice index     =            0
     lattice parameter (alat)  =       1.8897  a.u.
     unit-cell volume          =    7990.9933 (a.u.)^3
     number of atoms/cell      =           49
     number of atomic types    =            2
     number of electrons       =       390.00
     number of Kohn-Sham states=          295
     kinetic-energy cutoff     =      40.4243  Ry
     charge density cutoff     =     404.2426  Ry
     convergence threshold     =      7.3E-07
     mixing beta               =       0.1000
     number of iterations used =           10  plain     mixing
     Exchange-correlation      = BEEF ( 1  4 27 13 2)
     nstep                     =           50

     celldm(1)=   1.889726  celldm(2)=   0.000000  celldm(3)=   0.000000
     celldm(4)=   0.000000  celldm(5)=   0.000000  celldm(6)=   0.000000

     crystal axes: (cart. coord. in units of alat)
               a(1) = (   6.590708   0.000000   0.000000 )
               a(2) = (   0.000000   5.950229   0.000000 )
               a(3) = (   0.000000   0.000000  30.195235 )

     reciprocal axes: (cart. coord. in units 2 pi/alat)
               b(1) = (  0.151729  0.000000  0.000000 )
               b(2) = (  0.000000  0.168061  0.000000 )
               b(3) = (  0.000000  0.000000  0.033118 )

     PseudoPot. # 1 for Ti read from file:
     /home/alatimer/bin/psp/esp_psp_w_gbrvRu/Ti.UPF
     MD5 check sum: 8e4df49b7f0d34bbd5052bf3f5ea0213
     Pseudo is Ultrasoft, Zval = 12.0
     Generated by new atomic code, or converted to UPF format
     Using radial grid of  851 points,  6 beta functions with:
                l(1) =   0
                l(2) =   0
                l(3) =   1
                l(4) =   1
                l(5) =   2
                l(6) =   2
     Q(r) pseudized with  8 coefficients,  rinner =    1.000   1.000   1.000
                                                       1.000   1.000

     PseudoPot. # 2 for  O read from file:
     /home/alatimer/bin/psp/esp_psp_w_gbrvRu/O.UPF
     MD5 check sum: e057bbcf3229fb5d8c36c0c92f9568b4
     Pseudo is Ultrasoft + core correction, Zval =  6.0
     Generated using "atomic" code by A. Dal Corso  v.5.0.2 svn rev. 9415
     Using radial grid of 1095 points,  4 beta functions with:
                l(1) =   0
                l(2) =   0
                l(3) =   1
                l(4) =   1
     Q(r) pseudized with 0 coefficients

     vdW kernel table read from file vdW_kernel_table
     MD5 check sum: 095c7af220d748ca6e76c0b4c6cfb241

     atomic species   valence    mass     pseudopotential
        Ti1           12.00    47.88000     Ti( 1.00)
        O1             6.00    15.99940      O( 1.00)

     Starting magnetic structure
     atomic species   magnetization
        Ti1          0.250
        O1           0.500

     No symmetry found

   Cartesian axes

     site n.     atom                  positions (alat units)
         1           Ti1 tau(   1) = (   1.6476770   0.7437786   2.6545865  )
         2           O1  tau(   2) = (   1.6476770   2.2313359   3.9361215  )
         3           Ti1 tau(   3) = (   1.6476770   2.2313359   5.9499405  )
         4           O1  tau(   4) = (   0.3661420   0.7437786   5.9499405  )
         5           Ti1 tau(   5) = (   1.5277661   0.7316361   9.1979924  )
         6           O1  tau(   6) = (   1.6632133   2.1793878  10.6093433  )
         7           Ti1 tau(   7) = (   1.6165400   2.1742892  12.4450098  )
         8           O1  tau(   8) = (   0.4211133   0.7189415  12.7146628  )
         9           Ti1 tau(   9) = (   1.6476770   3.7188931   2.6545865  )
        10           O1  tau(  10) = (   1.6476770   5.2064503   3.9361215  )
        11           Ti1 tau(  11) = (   1.6476770   5.2064503   5.9499405  )
        12           O1  tau(  12) = (   0.3661420   3.7188931   5.9499405  )
        13           Ti1 tau(  13) = (   1.5318737   3.7073984   9.2114718  )
        14           O1  tau(  14) = (   1.6603548   5.2054729  10.6082275  )
        15           Ti1 tau(  15) = (   1.6160620   5.2125286  12.4458513  )
        16           O1  tau(  16) = (   0.3672395   3.6890226  12.4512313  )
        17           O1  tau(  17) = (   1.6476770   2.2313359   1.3730516  )
        18           Ti1 tau(  18) = (   4.9430310   2.2313359   2.6545865  )
        19           O1  tau(  19) = (   4.9430310   2.2313359   4.6684056  )
        20           O1  tau(  20) = (   6.2245660   0.7437786   2.6545865  )
        21           O1  tau(  21) = (   3.6614961   0.7437786   2.6545865  )
        22           Ti1 tau(  22) = (   4.9430310   0.7437786   5.9499405  )
        23           O1  tau(  23) = (   1.6494130   2.2266810   8.0229920  )
        24           O1  tau(  24) = (   4.9430310   2.2313359   7.2314755  )
        25           O1  tau(  25) = (   2.9292120   0.7437786   5.9499405  )
        26           Ti1 tau(  26) = (   4.8570045   2.2038353   9.3960648  )
        27           O1  tau(  27) = (   4.9365002   2.1563787  11.2526517  )
        28           O1  tau(  28) = (   6.2661622   0.7265345   9.2570196  )
        29           O1  tau(  29) = (   3.6607207   0.7252434   9.2585875  )
        30           Ti1 tau(  30) = (   4.8804456   0.7009689  12.7500804  )
        31           O1  tau(  31) = (   4.9885443   2.2055297  13.8060867  )
        32           O1  tau(  32) = (   2.8787315   0.7196740  12.7638696  )
        33           O1  tau(  33) = (   1.6476770   5.2064503   1.3730516  )
        34           Ti1 tau(  34) = (   4.9430310   5.2064503   2.6545865  )
        35           O1  tau(  35) = (   4.9430310   5.2064503   4.6684056  )
        36           O1  tau(  36) = (   6.2245660   3.7188931   2.6545865  )
        37           O1  tau(  37) = (   3.6614961   3.7188931   2.6545865  )
        38           Ti1 tau(  38) = (   4.9430310   3.7188931   5.9499405  )
        39           O1  tau(  39) = (   1.6492404   5.1840375   8.0235373  )
        40           O1  tau(  40) = (   4.9430310   5.2064503   7.2314755  )
        41           O1  tau(  41) = (   2.9292120   3.7188931   5.9499405  )
        42           Ti1 tau(  42) = (   4.8583452   5.1875290   9.3946917  )
        43           O1  tau(  43) = (   4.9366536   5.2195535  11.2514306  )
        44           O1  tau(  44) = (   6.2660656   3.7009687   9.2894568  )
        45           O1  tau(  45) = (   3.6605616   3.6984666   9.2954459  )
        46           Ti1 tau(  46) = (   5.1078939   3.6751672  12.7268755  )
        47           O1  tau(  47) = (   4.9880347   5.1576104  13.8055399  )
        48           O1  tau(  48) = (   3.0285069   3.6936269  12.4216869  )
        49           O1  tau(  49) = (   2.4158682   3.6994311  13.7464468  )

     number of k points=    40  Fermi-Dirac smearing, width (Ry)=  0.0073
                       cart. coord. in units 2pi/alat
        k(    1) = (   0.0000000   0.0000000   0.0000000), wk =   0.0277778
        k(    2) = (   0.0000000   0.0280101   0.0000000), wk =   0.0555556
        k(    3) = (   0.0000000   0.0560203   0.0000000), wk =   0.0555556
        k(    4) = (   0.0000000  -0.0840304   0.0000000), wk =   0.0277778
        k(    5) = (   0.0252881   0.0000000   0.0000000), wk =   0.0555556
        k(    6) = (   0.0252881   0.0280101   0.0000000), wk =   0.0555556
        k(    7) = (   0.0252881   0.0560203   0.0000000), wk =   0.0555556
        k(    8) = (   0.0252881  -0.0840304   0.0000000), wk =   0.0555556
        k(    9) = (   0.0505763   0.0000000   0.0000000), wk =   0.0555556
        k(   10) = (   0.0505763   0.0280101   0.0000000), wk =   0.0555556
        k(   11) = (   0.0505763   0.0560203   0.0000000), wk =   0.0555556
        k(   12) = (   0.0505763  -0.0840304   0.0000000), wk =   0.0555556
        k(   13) = (  -0.0758644   0.0000000   0.0000000), wk =   0.0277778
        k(   14) = (  -0.0758644   0.0280101   0.0000000), wk =   0.0555556
        k(   15) = (  -0.0758644   0.0560203   0.0000000), wk =   0.0555556
        k(   16) = (  -0.0758644  -0.0840304   0.0000000), wk =   0.0277778
        k(   17) = (  -0.0252881   0.0280101   0.0000000), wk =   0.0555556
        k(   18) = (  -0.0252881   0.0560203   0.0000000), wk =   0.0555556
        k(   19) = (  -0.0505763   0.0280101   0.0000000), wk =   0.0555556
        k(   20) = (  -0.0505763   0.0560203   0.0000000), wk =   0.0555556
        k(   21) = (   0.0000000   0.0000000   0.0000000), wk =   0.0277778
        k(   22) = (   0.0000000   0.0280101   0.0000000), wk =   0.0555556
        k(   23) = (   0.0000000   0.0560203   0.0000000), wk =   0.0555556
        k(   24) = (   0.0000000  -0.0840304   0.0000000), wk =   0.0277778
        k(   25) = (   0.0252881   0.0000000   0.0000000), wk =   0.0555556
        k(   26) = (   0.0252881   0.0280101   0.0000000), wk =   0.0555556
        k(   27) = (   0.0252881   0.0560203   0.0000000), wk =   0.0555556
        k(   28) = (   0.0252881  -0.0840304   0.0000000), wk =   0.0555556
        k(   29) = (   0.0505763   0.0000000   0.0000000), wk =   0.0555556
        k(   30) = (   0.0505763   0.0280101   0.0000000), wk =   0.0555556
        k(   31) = (   0.0505763   0.0560203   0.0000000), wk =   0.0555556
        k(   32) = (   0.0505763  -0.0840304   0.0000000), wk =   0.0555556
        k(   33) = (  -0.0758644   0.0000000   0.0000000), wk =   0.0277778
        k(   34) = (  -0.0758644   0.0280101   0.0000000), wk =   0.0555556
        k(   35) = (  -0.0758644   0.0560203   0.0000000), wk =   0.0555556
        k(   36) = (  -0.0758644  -0.0840304   0.0000000), wk =   0.0277778
        k(   37) = (  -0.0252881   0.0280101   0.0000000), wk =   0.0555556
        k(   38) = (  -0.0252881   0.0560203   0.0000000), wk =   0.0555556
        k(   39) = (  -0.0505763   0.0280101   0.0000000), wk =   0.0555556
        k(   40) = (  -0.0505763   0.0560203   0.0000000), wk =   0.0555556

     Largest allocated arrays     est. size (Mb)     dimensions
     Largest temporary arrays     est. size (Mb)     dimensions

     Check: negative/imaginary core charge=   -0.000049    0.000000

     The initial density is read from file :
     ./calc.save/charge-density.dat

     negative rho (up, down):  1.430E-02 1.430E-02

     *
     * You are using vdW-DF for exchange-correlation in this calculation.
     * Please cite the following three references that made this development
     * possible:
     *
[...]
     atom:   29    charge:    2.0876    magn:   -0.0001    constr:    0.0000
     atom:   30    charge:    3.1180    magn:    0.0000    constr:    0.0000
     atom:   31    charge:    2.0836    magn:   -0.0001    constr:    0.0000
     atom:   32    charge:    2.0870    magn:   -0.0001    constr:    0.0000
     atom:   33    charge:    2.0622    magn:    0.0006    constr:    0.0000
     atom:   34    charge:    3.1239    magn:   -0.0001    constr:    0.0000
     atom:   35    charge:    2.0878    magn:   -0.0000    constr:    0.0000
     atom:   36    charge:    2.0846    magn:    0.0001    constr:    0.0000
     atom:   37    charge:    2.0846    magn:    0.0001    constr:    0.0000
     atom:   38    charge:    3.1196    magn:    0.0000    constr:    0.0000
     atom:   39    charge:    2.0910    magn:   -0.0001    constr:    0.0000
     atom:   40    charge:    2.0790    magn:   -0.0000    constr:    0.0000
     atom:   41    charge:    2.0869    magn:   -0.0001    constr:    0.0000
     atom:   42    charge:    3.1145    magn:    0.0000    constr:    0.0000
     atom:   43    charge:    2.0818    magn:   -0.0001    constr:    0.0000
     atom:   44    charge:    2.0857    magn:   -0.0001    constr:    0.0000
     atom:   45    charge:    2.0875    magn:   -0.0001    constr:    0.0000
     atom:   46    charge:    3.1249    magn:    0.0001    constr:    0.0000
     atom:   47    charge:    2.0847    magn:   -0.0001    constr:    0.0000
     atom:   48    charge:    2.0735    magn:   -0.0001    constr:    0.0000
     atom:   49    charge:    2.0392    magn:   -0.0001    constr:    0.0000

     total energy              =   -3004.20119174 Ry
     Harris-Foulkes estimate   =   -3004.21730528 Ry
     estimated scf accuracy    <       0.10530098 Ry

     total magnetization       =     0.00 Bohr mag/cell
     absolute magnetization    =     0.01 Bohr mag/cell

[...]

     total energy              =   -3004.17578587 Ry
     Harris-Foulkes estimate   =   -3004.17578530 Ry
     estimated scf accuracy    <       0.00000117 Ry

[...]

     iteration # 11     ecut=    40.42 Ry     beta=0.10
     Davidson diagonalization with overlap
     ethr =  3.00E-10,  avg # of iterations =  2.0

     negative rho (up, down):  1.431E-02 1.431E-02

     Magnetic moment per site:
     atom:    1    charge:    3.1251    magn:   -0.0000    constr:    0.0000
     atom:    2    charge:    2.0895    magn:    0.0000    constr:    0.0000
     atom:    3    charge:    3.1196    magn:   -0.0000    constr:    0.0000
     atom:    4    charge:    2.0871    magn:   -0.0000    constr:    0.0000
     atom:    5    charge:    3.1167    magn:    0.0000    constr:    0.0000
     atom:    6    charge:    2.0890    magn:   -0.0000    constr:    0.0000
     atom:    7    charge:    3.1218    magn:    0.0000    constr:    0.0000
     atom:    8    charge:    2.0873    magn:   -0.0000    constr:    0.0000
     atom:    9    charge:    3.1251    magn:   -0.0000    constr:    0.0000
     atom:   10    charge:    2.0894    magn:    0.0000    constr:    0.0000
     atom:   11    charge:    3.1196    magn:   -0.0000    constr:    0.0000
     atom:   12    charge:    2.0871    magn:   -0.0000    constr:    0.0000
     atom:   13    charge:    3.1147    magn:    0.0000    constr:    0.0000
     atom:   14    charge:    2.0876    magn:   -0.0000    constr:    0.0000
     atom:   15    charge:    3.1177    magn:    0.0000    constr:    0.0000
     atom:   16    charge:    2.1002    magn:   -0.0000    constr:    0.0000
     atom:   17    charge:    2.0622    magn:    0.0001    constr:    0.0000
     atom:   18    charge:    3.1239    magn:   -0.0000    constr:    0.0000
     atom:   19    charge:    2.0877    magn:    0.0000    constr:    0.0000
     atom:   20    charge:    2.0846    magn:    0.0000    constr:    0.0000
     atom:   21    charge:    2.0846    magn:    0.0000    constr:    0.0000
     atom:   22    charge:    3.1196    magn:    0.0000    constr:    0.0000
     atom:   23    charge:    2.0903    magn:   -0.0000    constr:    0.0000
     atom:   24    charge:    2.0789    magn:   -0.0000    constr:    0.0000
     atom:   25    charge:    2.0869    magn:   -0.0000    constr:    0.0000
     atom:   26    charge:    3.1149    magn:    0.0000    constr:    0.0000
     atom:   27    charge:    2.0818    magn:   -0.0000    constr:    0.0000
     atom:   28    charge:    2.0885    magn:   -0.0000    constr:    0.0000
     atom:   29    charge:    2.0876    magn:   -0.0000    constr:    0.0000
     atom:   30    charge:    3.1182    magn:    0.0000    constr:    0.0000
     atom:   31    charge:    2.0832    magn:   -0.0000    constr:    0.0000
     atom:   32    charge:    2.0862    magn:   -0.0000    constr:    0.0000
     atom:   33    charge:    2.0622    magn:    0.0001    constr:    0.0000
     atom:   34    charge:    3.1239    magn:   -0.0000    constr:    0.0000
     atom:   35    charge:    2.0877    magn:    0.0000    constr:    0.0000
     atom:   36    charge:    2.0846    magn:    0.0000    constr:    0.0000
     atom:   37    charge:    2.0846    magn:    0.0000    constr:    0.0000
     atom:   38    charge:    3.1196    magn:    0.0000    constr:    0.0000
     atom:   39    charge:    2.0910    magn:   -0.0000    constr:    0.0000
     atom:   40    charge:    2.0790    magn:   -0.0000    constr:    0.0000
     atom:   41    charge:    2.0869    magn:   -0.0000    constr:    0.0000
     atom:   42    charge:    3.1146    magn:    0.0000    constr:    0.0000
     atom:   43    charge:    2.0817    magn:   -0.0000    constr:    0.0000
     atom:   44    charge:    2.0857    magn:   -0.0000    constr:    0.0000
     atom:   45    charge:    2.0874    magn:   -0.0000    constr:    0.0000
     atom:   46    charge:    3.1241    magn:    0.0000    constr:    0.0000
     atom:   47    charge:    2.0842    magn:   -0.0000    constr:    0.0000
     atom:   48    charge:    2.0707    magn:   -0.0000    constr:    0.0000
     atom:   49    charge:    2.0456    magn:   -0.0000    constr:    0.0000

     End of self-consistent calculation

 ------ SPIN UP ------------

          k = 0.0000 0.0000 0.0000 ( 34665 PWs)   bands (ev):

   -58.2563 -58.2214 -58.0983 -58.0593 -57.9292 -57.8806 -57.7084 -57.6730
   -57.6522 -57.6169 -57.5765 -57.5402 -57.3929 -57.2363 -56.7030 -56.6677
   -34.6917 -34.6663 -34.5386 -34.5101 -34.4753 -34.4571 -34.4077 -34.3629
   -34.3607 -34.3151 -34.3019 -34.2929 -34.2221 -34.2038 -34.1979 -34.1455
   -34.1452 -34.1096 -34.1012 -34.0884 -34.0656 -33.9938 -33.9036 -33.8865
   -33.8703 -33.8604 -33.8594 -33.8394 -33.8250 -33.8212 -33.8106 -33.8084
   -33.7742 -33.7648 -33.7531 -33.7345 -33.7069 -33.6972 -33.6342 -33.6168
   -33.4663 -33.3955 -33.1214 -33.0552 -33.0291 -32.9257 -32.8339 -32.7253
   -22.6696 -18.6065 -18.4176 -18.3172 -18.0867 -17.9411 -17.8954 -17.8331
   -17.6574 -17.6195 -17.5497 -17.5306 -17.5096 -17.4645 -17.4375 -17.4032
   -17.3691 -17.3010 -17.2618 -17.1645 -17.1297 -17.0104 -17.0099 -16.9740
   -16.8612 -16.7729 -16.7499 -16.7291 -16.5960 -16.5688 -15.6279 -15.2825
   -15.1973  -6.9668  -6.5417  -6.3237  -5.9758  -5.9321  -5.7916  -5.7287
    -5.4646  -5.4187  -5.3885  -5.0950  -5.0420  -5.0017  -4.9755  -4.8949
    -4.8616  -4.7922  -4.7298  -4.6626  -4.6565  -4.6385  -4.5817  -4.5735
    -4.5309  -4.5148  -4.5022  -4.4335  -4.3462  -4.2992  -4.2468  -4.1951
    -4.1687  -4.1040  -4.0936  -4.0652  -4.0613  -3.9693  -3.9614  -3.9400
    -3.8466  -3.6490  -3.6050  -3.5495  -3.4730  -3.4328  -3.4225  -3.2901
    -3.1967  -3.1831  -3.1647  -3.1472  -3.0074  -2.9760  -2.9415  -2.9258
    -2.8643  -2.8266  -2.7929  -2.7709  -2.7618  -2.6919  -2.6756  -2.6062
    -2.5379  -2.4867  -2.4080  -2.3332  -2.2080  -2.1400  -2.1325  -2.0730
    -2.0531  -1.9978  -1.9285  -1.9017  -1.8867  -1.8809  -1.8268  -1.7781
    -1.7457  -1.7044  -1.6401  -1.6231  -1.6139  -1.5486  -1.5263  -1.3709
    -1.2430  -1.1961  -1.1574  -1.1398  -1.0452  -0.7824  -0.6517  -0.6382
    -0.4264  -0.3003  -0.2864   1.0861   1.1125   1.1780   1.3913   1.4456
     1.4521   1.5371   1.6222   1.6633   1.7803   1.8737   1.8874   1.9416
     1.9609   1.9754   2.0010   2.0639   2.0930   2.1004   2.1469   2.1532
     2.2446   2.2676   2.2931   2.3127   2.5062   2.5106   2.5519   2.5630
     2.5693   2.6178   2.6298   2.6414   2.6721   2.7076   2.7629   2.8387
     2.8448   2.8776   2.9090   2.9723   3.0530   3.0553   3.1702   3.4029
     3.5216   3.5270   3.6249   3.6401   3.6873   3.8328   4.0175   4.0382
     4.0902   4.2148   4.4946   4.5129   4.6189   4.6646   4.7748   4.9163
     4.9362   5.0170   5.1316   5.1841   5.2030   5.2416   5.2676   5.2713
     5.3159   5.4055   5.4926   5.5505   5.5904   5.6423   5.6800   5.7828
     5.9023   5.9847   6.0295   6.3614   6.4109   6.4646   6.5612   6.7460
     7.1832   7.8117   7.9744   8.3161   8.5696   8.5942   8.8174   8.8638
     8.9300   9.1869   9.2241   9.3148   9.3459   9.5769   9.6686

[...]

          k =-0.0759 0.0000 0.0000 ( 34758 PWs)   bands (ev):

[...]

 ------ SPIN DOWN ----------

[...]

          k = 0.0506-0.0840 0.0000 ( 34628 PWs)   bands (ev):

[...]

          k =-0.0506 0.0560 0.0000 ( 34596 PWs)   bands (ev):

   -58.2477 -58.2302 -58.0898 -58.0677 -57.9236 -57.8863 -57.6995 -57.6818
   -57.6436 -57.6257 -57.5681 -57.5486 -57.3912 -57.2380 -56.6944 -56.6767
   -34.5974 -34.5674 -34.5314 -34.5171 -34.4322 -34.4022 -34.3863 -34.3862
   -34.3801 -34.3545 -34.3388 -34.3264 -34.2966 -34.1958 -34.1529 -34.1333
   -34.1282 -34.1092 -34.1065 -34.0514 -33.9920 -33.9497 -33.9155 -33.8962
   -33.8818 -33.8783 -33.8669 -33.8546 -33.8381 -33.8326 -33.8317 -33.8219
   -33.7981 -33.7849 -33.7740 -33.7638 -33.7356 -33.6973 -33.6318 -33.6161
   -33.4980 -33.4669 -33.0507 -33.0352 -33.0248 -32.9032 -32.8573 -32.8270
   -22.6480 -18.3150 -18.1255 -18.0514 -17.9477 -17.8290 -17.8189 -17.7813
   -17.7442 -17.7290 -17.6977 -17.6190 -17.6046 -17.5030 -17.4465 -17.4189
   -17.4173 -17.3569 -17.2632 -17.2354 -17.1783 -17.1441 -17.1025 -16.9535
   -16.8406 -16.8110 -16.7817 -16.7485 -16.7346 -16.6674 -15.6134 -15.3074
   -15.2709  -6.6713  -6.4065  -6.2747  -5.5959  -5.2688  -5.2180  -5.1853
    -5.1331  -5.1134  -5.0874  -5.0516  -5.0328  -4.9634  -4.8987  -4.8711
    -4.8630  -4.7873  -4.7714  -4.7137  -4.7062  -4.6693  -4.6516  -4.6229
    -4.5989  -4.5893  -4.5314  -4.4809  -4.4637  -4.4119  -4.3408  -4.2702
    -4.2177  -4.1872  -4.0989  -4.0192  -3.9520  -3.9131  -3.8462  -3.8134
    -3.6896  -3.6227  -3.5644  -3.5059  -3.4864  -3.4472  -3.3824  -3.3593
    -3.2975  -3.2663  -3.2322  -3.1912  -3.1161  -3.0897  -3.0508  -3.0007
    -2.9467  -2.9180  -2.8984  -2.8651  -2.8430  -2.7852  -2.7478  -2.7378
    -2.6962  -2.6758  -2.5702  -2.5333  -2.5128  -2.4694  -2.4388  -2.3715
    -2.3148  -2.2472  -2.1835  -2.0868  -2.0361  -1.9942  -1.9556  -1.8811
    -1.8770  -1.8142  -1.7330  -1.6639  -1.6257  -1.5578  -1.5294  -1.4685
    -1.3766  -1.3502  -1.2826  -1.2357  -1.2228  -1.0556  -0.9104  -0.4705
    -0.4345  -0.4181  -0.3604   1.3028   1.4245   1.5199   1.5220   1.6293
     1.6545   1.6886   1.7020   1.7573   1.8305   1.8504   1.9400   1.9794
     1.9960   2.0268   2.0421   2.0729   2.1398   2.1632   2.2126   2.2459
     2.2649   2.3450   2.4087   2.4371   2.4447   2.4783   2.5442   2.5629
     2.6934   2.7221   2.7676   2.7810   2.8483   2.8627   2.9022   2.9282
     2.9887   3.0591   3.0886   3.1812   3.2189   3.2679   3.3197   3.3525
     3.3679   3.3931   3.5526   3.5999   3.7232   3.7378   3.8328   3.9857
     4.1747   4.2421   4.2535   4.3064   4.4492   4.4764   4.5720   4.6731
     4.7149   4.7717   4.8755   5.0102   5.1483   5.2165   5.2789   5.3543
     5.4814   5.5256   5.6251   5.7596   5.7880   5.7949   5.8485   5.9967
     6.0737   6.0965   6.1720   6.2699   6.3505   6.4336   6.7616   6.9566
     7.1735   7.4491   7.6244   7.7322   8.0432   8.1038   8.1874   8.5293
     8.7116   8.7928   8.9082   9.0770   9.0945   9.4040   9.4764

     the Fermi energy is     0.4337 ev

!    total energy              =   -3004.17578965 Ry
     Harris-Foulkes estimate   =   -3004.17578599 Ry
     estimated scf accuracy    <       0.00000017 Ry

     The total energy is the sum of the following terms:

     one-electron contribution =  -42059.08518110 Ry
     hartree contribution      =   21091.91432994 Ry
     xc contribution           =    -546.24671095 Ry
     ewald contribution        =   18509.24201289 Ry
     smearing contrib. (-TS)   =      -0.00024043 Ry

     total magnetization       =     0.00 Bohr mag/cell
     absolute magnetization    =     0.00 Bohr mag/cell

     convergence has been achieved in  11 iterations

     Forces acting on atoms (Ry/au):

     negative rho (up, down):  1.431E-02 1.431E-02
     atom    1 type  1   force =    -0.00015570    0.00028836   -0.13694270
     atom    2 type  2   force =     0.00009889   -0.00013018    0.07530293
     atom    3 type  1   force =     0.00071100    0.00084643   -0.05924591
     atom    4 type  2   force =     0.00471300   -0.00032806    0.00929958
     atom    5 type  1   force =     0.00006178    0.00015498    0.00006375
     atom    6 type  2   force =    -0.00004001    0.00022631   -0.00156744
     atom    7 type  1   force =     0.00203745    0.00035634    0.00171868
     atom    8 type  2   force =    -0.00049698   -0.00013176   -0.00047168
     atom    9 type  1   force =    -0.00001584    0.00038516   -0.13698290
     atom   10 type  2   force =     0.00016719   -0.00023633    0.07532663
     atom   11 type  1   force =     0.00078039   -0.00091358   -0.05941784
     atom   12 type  2   force =     0.00435053   -0.00010296    0.00815163
     atom   13 type  1   force =    -0.00047505   -0.00060570    0.00000759
     atom   14 type  2   force =    -0.00011943   -0.00004145   -0.00008952
     atom   15 type  1   force =     0.00134206    0.00006820    0.00144017
     atom   16 type  2   force =     0.00472904    0.00078161    0.00228753
     atom   17 type  2   force =     0.00022924   -0.00005281    0.08101114
     atom   18 type  1   force =    -0.00015229    0.00028399    0.11716789
     atom   19 type  2   force =     0.00027181    0.00010713   -0.06541123
     atom   20 type  2   force =    -0.06317616   -0.00004645   -0.03167515
     atom   21 type  2   force =     0.06300317    0.00018105   -0.03165710
     atom   22 type  1   force =    -0.00059708    0.00003198    0.05922059
     atom   23 type  2   force =    -0.00015240    0.00028999   -0.00024336
     atom   24 type  2   force =     0.00059330   -0.00015136   -0.02271834
     atom   25 type  2   force =    -0.00453033   -0.00027959    0.00817904
     atom   26 type  1   force =    -0.00002395    0.00042846    0.00021009
     atom   27 type  2   force =     0.00039042   -0.00023874   -0.00052230
     atom   28 type  2   force =    -0.00112920   -0.00007393   -0.00015645
     atom   29 type  2   force =     0.00039503   -0.00017751   -0.00006342
     atom   30 type  1   force =    -0.00004042    0.00075140    0.00087387
     atom   31 type  2   force =     0.00055129   -0.00056569   -0.00050954
     atom   32 type  2   force =    -0.00000741   -0.00027780   -0.00041954
     atom   33 type  2   force =     0.00023609    0.00002057    0.08096726
     atom   34 type  1   force =    -0.00021472    0.00027265    0.11710408
     atom   35 type  2   force =     0.00031467    0.00018142   -0.06547517
     atom   36 type  2   force =    -0.06303965    0.00015700   -0.03186675
     atom   37 type  2   force =     0.06317381    0.00018740   -0.03157509
     atom   38 type  1   force =    -0.00045816   -0.00022690    0.05893914
     atom   39 type  2   force =     0.00009305   -0.00052093   -0.00071797
     atom   40 type  2   force =     0.00045088   -0.00228824   -0.02231838
     atom   41 type  2   force =    -0.00413165   -0.00028598    0.00762197
     atom   42 type  1   force =    -0.00028629   -0.00044904    0.00019979
     atom   43 type  2   force =     0.00039550    0.00022985   -0.00035078
     atom   44 type  2   force =     0.00037586    0.00016715   -0.00005637
     atom   45 type  2   force =    -0.00012999   -0.00013409   -0.00021147
     atom   46 type  1   force =    -0.00285556    0.00022934    0.00058128
     atom   47 type  2   force =     0.00038288    0.00076526   -0.00070146
     atom   48 type  2   force =     0.00609109    0.00077790   -0.00971340
     atom   49 type  2   force =    -0.01371113    0.00008918    0.00540659

     Total force =     0.365709     Total SCF correction =     0.001103
 !ASE

     Writing output data file calc.save

     General routines

     Parallel routines

   This run was terminated on:  19:50:36  10Feb2018

   JOB DONE.