     Program PWSCF v.5.1rc2 (svn rev. ) starts on 10Mar2018 at 10:32: 7

     Current dimensions of program PWSCF are:
     Max number of different atomic species (ntypx) = 10
     Max number of k-points (npk) =  40000
     Max angular momentum in pseudopotentials (lmaxx) =  3

     IMPORTANT: XC functional enforced from input :
     Exchange-correlation      = BEEF ( 1  4 27 13 2)
     Any further DFT definition will be discarded
     Please, verify this is what you really want

     Subspace diagonalization in iterative solution of the eigenvalue problem:
     a serial algorithm will be used

     Generating pointlists ...
     new r_m :   0.4125 (alat units)  0.7795 (a.u.) for type    1
     new r_m :   0.4125 (alat units)  0.7795 (a.u.) for type    2
     new r_m :   0.4125 (alat units)  0.7795 (a.u.) for type    3

     bravais-lattice index     =            0
     lattice parameter (alat)  =       1.8897  a.u.
     unit-cell volume          =    7990.9933 (a.u.)^3
     number of atoms/cell      =           51
     number of atomic types    =            3
     number of electrons       =       400.00
     number of Kohn-Sham states=          300
     kinetic-energy cutoff     =      40.4243  Ry
     charge density cutoff     =     404.2426  Ry
     convergence threshold     =      7.3E-07
     mixing beta               =       0.1000
     number of iterations used =           10  plain     mixing
     Exchange-correlation      = BEEF ( 1  4 27 13 2)
     nstep                     =           50

     celldm(1)=   1.889726  celldm(2)=   0.000000  celldm(3)=   0.000000
     celldm(4)=   0.000000  celldm(5)=   0.000000  celldm(6)=   0.000000

     crystal axes: (cart. coord. in units of alat)
               a(1) = (   6.590708   0.000000   0.000000 )
               a(2) = (   0.000000   5.950229   0.000000 )
               a(3) = (   0.000000   0.000000  30.195235 )

     reciprocal axes: (cart. coord. in units 2 pi/alat)
               b(1) = (  0.151729  0.000000  0.000000 )
               b(2) = (  0.000000  0.168061  0.000000 )
               b(3) = (  0.000000  0.000000  0.033118 )

     PseudoPot. # 1 for Ti read from file:
     /home/alatimer/bin/psp/esp_psp_w_gbrvRu/Ti.UPF
     MD5 check sum: 8e4df49b7f0d34bbd5052bf3f5ea0213
     Pseudo is Ultrasoft, Zval = 12.0
     Generated by new atomic code, or converted to UPF format
     Using radial grid of  851 points,  6 beta functions with:
                l(1) =   0
                l(2) =   0
                l(3) =   1
                l(4) =   1
                l(5) =   2
                l(6) =   2
     Q(r) pseudized with  8 coefficients,  rinner =    1.000   1.000   1.000
                                                       1.000   1.000

     PseudoPot. # 2 for  O read from file:
     /home/alatimer/bin/psp/esp_psp_w_gbrvRu/O.UPF
     MD5 check sum: e057bbcf3229fb5d8c36c0c92f9568b4
     Pseudo is Ultrasoft + core correction, Zval =  6.0
     Generated using "atomic" code by A. Dal Corso  v.5.0.2 svn rev. 9415
     Using radial grid of 1095 points,  4 beta functions with:
                l(1) =   0
                l(2) =   0
                l(3) =   1
                l(4) =   1
     Q(r) pseudized with 0 coefficients

     PseudoPot. # 3 for  N read from file:
     /home/alatimer/bin/psp/esp_psp_w_gbrvRu/N.UPF
     MD5 check sum: ed8b6a90f28a53b7d71920e7015d2dd6
     Pseudo is Ultrasoft + core correction, Zval =  5.0
     Generated using "atomic" code by A. Dal Corso  v.5.0.2 svn rev. 9415
     Using radial grid of 1085 points,  4 beta functions with:
                l(1) =   0
                l(2) =   0
                l(3) =   1
                l(4) =   1
     Q(r) pseudized with 0 coefficients

     vdW kernel table read from file vdW_kernel_table
     MD5 check sum: 095c7af220d748ca6e76c0b4c6cfb241

     atomic species   valence    mass     pseudopotential
        Ti1           12.00    47.88000     Ti( 1.00)
        O1             6.00    15.99940      O( 1.00)
        N1             5.00    14.00670      N( 1.00)

     Starting magnetic structure
     atomic species   magnetization
        Ti1          0.250
        O1           0.500
        N1           0.600

     No symmetry found

   Cartesian axes

     site n.     atom                  positions (alat units)
         1           Ti1 tau(   1) = (   1.6476770   0.7437786   2.6545865  )
         2           O1  tau(   2) = (   1.6476770   2.2313359   3.9361215  )
         3           Ti1 tau(   3) = (   1.6476770   2.2313359   5.9499405  )
         4           O1  tau(   4) = (   0.3661420   0.7437786   5.9499405  )
         5           Ti1 tau(   5) = (   1.5280591   0.7315068   9.1973351  )
         6           O1  tau(   6) = (   1.6613943   2.1836906  10.6091769  )
         7           Ti1 tau(   7) = (   1.6665780   2.2096385  12.4157880  )
         8           O1  tau(   8) = (   0.4439715   0.7264440  12.7601561  )
         9           Ti1 tau(   9) = (   1.6476770   3.7188931   2.6545865  )
        10           O1  tau(  10) = (   1.6476770   5.2064503   3.9361215  )
        11           Ti1 tau(  11) = (   1.6476770   5.2064503   5.9499405  )
        12           O1  tau(  12) = (   0.3661420   3.7188931   5.9499405  )
        13           Ti1 tau(  13) = (   1.5319291   3.7072436   9.2118370  )
        14           O1  tau(  14) = (   1.6575607   5.2126413  10.6087893  )
        15           Ti1 tau(  15) = (   1.6606453   5.1916961  12.4165775  )
        16           O1  tau(  16) = (   0.4123725   3.7022030  12.5882193  )
        17           O1  tau(  17) = (   1.6476770   2.2313359   1.3730516  )
        18           Ti1 tau(  18) = (   4.9430310   2.2313359   2.6545865  )
        19           O1  tau(  19) = (   4.9430310   2.2313359   4.6684056  )
        20           O1  tau(  20) = (   6.2245660   0.7437786   2.6545865  )
        21           O1  tau(  21) = (   3.6614961   0.7437786   2.6545865  )
        22           Ti1 tau(  22) = (   4.9430310   0.7437786   5.9499405  )
        23           O1  tau(  23) = (   1.6517842   2.2287041   8.0298356  )
        24           O1  tau(  24) = (   4.9430310   2.2313359   7.2314755  )
        25           O1  tau(  25) = (   2.9292120   0.7437786   5.9499405  )
        26           Ti1 tau(  26) = (   4.8605205   2.2076595   9.4238065  )
        27           O1  tau(  27) = (   4.9553550   2.1639423  11.2756624  )
        28           O1  tau(  28) = (   6.2690671   0.7288246   9.2688367  )
        29           O1  tau(  29) = (   3.6660957   0.7249325   9.2867299  )
        30           Ti1 tau(  30) = (   4.9284588   0.7282168  12.7798302  )
        31           O1  tau(  31) = (   4.9953437   2.2216212  13.8477397  )
        32           O1  tau(  32) = (   2.9112183   0.7266397  12.7651274  )
        33           O1  tau(  33) = (   1.6476770   5.2064503   1.3730516  )
        34           Ti1 tau(  34) = (   4.9430310   5.2064503   2.6545865  )
        35           O1  tau(  35) = (   4.9430310   5.2064503   4.6684056  )
        36           O1  tau(  36) = (   6.2245660   3.7188931   2.6545865  )
        37           O1  tau(  37) = (   3.6614961   3.7188931   2.6545865  )
        38           Ti1 tau(  38) = (   4.9430310   3.7188931   5.9499405  )
        39           O1  tau(  39) = (   1.6524867   5.1852222   8.0294571  )
        40           O1  tau(  40) = (   4.9430310   5.2064503   7.2314755  )
        41           O1  tau(  41) = (   2.9292120   3.7188931   5.9499405  )
        42           Ti1 tau(  42) = (   4.8610151   5.1886528   9.4241876  )
        43           O1  tau(  43) = (   4.9550983   5.2107439  11.2753448  )
        44           O1  tau(  44) = (   6.2713562   3.7024388   9.3047907  )
        45           O1  tau(  45) = (   3.6650622   3.7005085   9.3135888  )
        46           Ti1 tau(  46) = (   5.0160509   3.7038162  12.7585864  )
        47           O1  tau(  47) = (   4.9984032   5.1727849  13.8485277  )
        48           O1  tau(  48) = (   2.9655234   3.7049164  12.5317472  )
        49           O1  tau(  49) = (   2.2548149   3.7063572  14.5693114  )
        50           N1  tau(  50) = (   2.3720298   3.6667063  16.9651815  )
        51           N1  tau(  51) = (   2.1425646   3.6919273  15.8611024  )

     number of k points=    40  Fermi-Dirac smearing, width (Ry)=  0.0073
                       cart. coord. in units 2pi/alat
        k(    1) = (   0.0000000   0.0000000   0.0000000), wk =   0.0277778
        k(    2) = (   0.0000000   0.0280101   0.0000000), wk =   0.0555556
        k(    3) = (   0.0000000   0.0560203   0.0000000), wk =   0.0555556
        k(    4) = (   0.0000000  -0.0840304   0.0000000), wk =   0.0277778
        k(    5) = (   0.0252881   0.0000000   0.0000000), wk =   0.0555556
        k(    6) = (   0.0252881   0.0280101   0.0000000), wk =   0.0555556
        k(    7) = (   0.0252881   0.0560203   0.0000000), wk =   0.0555556
        k(    8) = (   0.0252881  -0.0840304   0.0000000), wk =   0.0555556
        k(    9) = (   0.0505763   0.0000000   0.0000000), wk =   0.0555556
        k(   10) = (   0.0505763   0.0280101   0.0000000), wk =   0.0555556
        k(   11) = (   0.0505763   0.0560203   0.0000000), wk =   0.0555556
        k(   12) = (   0.0505763  -0.0840304   0.0000000), wk =   0.0555556
        k(   13) = (  -0.0758644   0.0000000   0.0000000), wk =   0.0277778
        k(   14) = (  -0.0758644   0.0280101   0.0000000), wk =   0.0555556
        k(   15) = (  -0.0758644   0.0560203   0.0000000), wk =   0.0555556
        k(   16) = (  -0.0758644  -0.0840304   0.0000000), wk =   0.0277778
        k(   17) = (  -0.0252881   0.0280101   0.0000000), wk =   0.0555556
        k(   18) = (  -0.0252881   0.0560203   0.0000000), wk =   0.0555556
        k(   19) = (  -0.0505763   0.0280101   0.0000000), wk =   0.0555556
        k(   20) = (  -0.0505763   0.0560203   0.0000000), wk =   0.0555556
        k(   21) = (   0.0000000   0.0000000   0.0000000), wk =   0.0277778
        k(   22) = (   0.0000000   0.0280101   0.0000000), wk =   0.0555556
        k(   23) = (   0.0000000   0.0560203   0.0000000), wk =   0.0555556
        k(   24) = (   0.0000000  -0.0840304   0.0000000), wk =   0.0277778
        k(   25) = (   0.0252881   0.0000000   0.0000000), wk =   0.0555556
        k(   26) = (   0.0252881   0.0280101   0.0000000), wk =   0.0555556
        k(   27) = (   0.0252881   0.0560203   0.0000000), wk =   0.0555556
        k(   28) = (   0.0252881  -0.0840304   0.0000000), wk =   0.0555556
        k(   29) = (   0.0505763   0.0000000   0.0000000), wk =   0.0555556
        k(   30) = (   0.0505763   0.0280101   0.0000000), wk =   0.0555556
        k(   31) = (   0.0505763   0.0560203   0.0000000), wk =   0.0555556
        k(   32) = (   0.0505763  -0.0840304   0.0000000), wk =   0.0555556
        k(   33) = (  -0.0758644   0.0000000   0.0000000), wk =   0.0277778
        k(   34) = (  -0.0758644   0.0280101   0.0000000), wk =   0.0555556
        k(   35) = (  -0.0758644   0.0560203   0.0000000), wk =   0.0555556
        k(   36) = (  -0.0758644  -0.0840304   0.0000000), wk =   0.0277778
[...]
     atom:   36    charge:    2.0847    magn:   -0.0001    constr:    0.0000
     atom:   37    charge:    2.0847    magn:   -0.0001    constr:    0.0000
     atom:   38    charge:    3.1197    magn:   -0.0000    constr:    0.0000
     atom:   39    charge:    2.0912    magn:    0.0001    constr:    0.0000
     atom:   40    charge:    2.0777    magn:    0.0001    constr:    0.0000
     atom:   41    charge:    2.0869    magn:    0.0000    constr:    0.0000
     atom:   42    charge:    3.1181    magn:   -0.0001    constr:    0.0000
     atom:   43    charge:    2.0838    magn:    0.0002    constr:    0.0000
     atom:   44    charge:    2.0865    magn:    0.0001    constr:    0.0000
     atom:   45    charge:    2.0871    magn:    0.0001    constr:    0.0000
     atom:   46    charge:    3.1171    magn:   -0.0001    constr:    0.0000
     atom:   47    charge:    2.0796    magn:    0.0003    constr:    0.0000
     atom:   48    charge:    2.0834    magn:    0.0002    constr:    0.0000
     atom:   49    charge:    2.0518    magn:   -0.0000    constr:    0.0000
     atom:   50    charge:    1.2564    magn:   -0.0000    constr:    0.0000
     atom:   51    charge:    1.2881    magn:    0.0000    constr:    0.0000

     total energy              =   -3044.97080797 Ry
     Harris-Foulkes estimate   =   -3044.97776576 Ry
     estimated scf accuracy    <       0.04882607 Ry

     total magnetization       =     0.00 Bohr mag/cell
     absolute magnetization    =     0.01 Bohr mag/cell

[...]

     total energy              =   -3044.95833927 Ry
     Harris-Foulkes estimate   =   -3044.95833933 Ry
     estimated scf accuracy    <       0.00000075 Ry

[...]

     iteration # 10     ecut=    40.42 Ry     beta=0.10
     Davidson diagonalization with overlap
     ethr =  1.87E-10,  avg # of iterations =  3.0

     negative rho (up, down):  1.158E-02 1.158E-02

     Magnetic moment per site:
     atom:    1    charge:    3.1250    magn:   -0.0000    constr:    0.0000
     atom:    2    charge:    2.0894    magn:    0.0000    constr:    0.0000
     atom:    3    charge:    3.1196    magn:   -0.0000    constr:    0.0000
     atom:    4    charge:    2.0870    magn:    0.0000    constr:    0.0000
     atom:    5    charge:    3.1170    magn:   -0.0000    constr:    0.0000
     atom:    6    charge:    2.0917    magn:    0.0000    constr:    0.0000
     atom:    7    charge:    3.1185    magn:   -0.0000    constr:    0.0000
     atom:    8    charge:    2.0816    magn:    0.0000    constr:    0.0000
     atom:    9    charge:    3.1250    magn:   -0.0000    constr:    0.0000
     atom:   10    charge:    2.0894    magn:    0.0000    constr:    0.0000
     atom:   11    charge:    3.1196    magn:   -0.0000    constr:    0.0000
     atom:   12    charge:    2.0870    magn:    0.0000    constr:    0.0000
     atom:   13    charge:    3.1148    magn:   -0.0000    constr:    0.0000
     atom:   14    charge:    2.0911    magn:    0.0000    constr:    0.0000
     atom:   15    charge:    3.1194    magn:   -0.0000    constr:    0.0000
     atom:   16    charge:    2.0883    magn:    0.0000    constr:    0.0000
     atom:   17    charge:    2.0624    magn:    0.0000    constr:    0.0000
     atom:   18    charge:    3.1239    magn:   -0.0000    constr:    0.0000
     atom:   19    charge:    2.0878    magn:   -0.0000    constr:    0.0000
     atom:   20    charge:    2.0847    magn:   -0.0000    constr:    0.0000
     atom:   21    charge:    2.0847    magn:   -0.0000    constr:    0.0000
     atom:   22    charge:    3.1197    magn:   -0.0000    constr:    0.0000
     atom:   23    charge:    2.0909    magn:    0.0000    constr:    0.0000
     atom:   24    charge:    2.0777    magn:    0.0000    constr:    0.0000
     atom:   25    charge:    2.0869    magn:    0.0000    constr:    0.0000
     atom:   26    charge:    3.1165    magn:   -0.0000    constr:    0.0000
     atom:   27    charge:    2.0824    magn:    0.0000    constr:    0.0000
     atom:   28    charge:    2.0879    magn:    0.0000    constr:    0.0000
     atom:   29    charge:    2.0877    magn:    0.0000    constr:    0.0000
     atom:   30    charge:    3.1168    magn:   -0.0000    constr:    0.0000
     atom:   31    charge:    2.0816    magn:    0.0000    constr:    0.0000
     atom:   32    charge:    2.0843    magn:    0.0000    constr:    0.0000
     atom:   33    charge:    2.0624    magn:    0.0000    constr:    0.0000
     atom:   34    charge:    3.1239    magn:   -0.0000    constr:    0.0000
     atom:   35    charge:    2.0878    magn:   -0.0000    constr:    0.0000
     atom:   36    charge:    2.0847    magn:   -0.0000    constr:    0.0000
     atom:   37    charge:    2.0847    magn:   -0.0000    constr:    0.0000
     atom:   38    charge:    3.1197    magn:   -0.0000    constr:    0.0000
     atom:   39    charge:    2.0912    magn:    0.0000    constr:    0.0000
     atom:   40    charge:    2.0777    magn:    0.0000    constr:    0.0000
     atom:   41    charge:    2.0869    magn:    0.0000    constr:    0.0000
     atom:   42    charge:    3.1181    magn:   -0.0000    constr:    0.0000
     atom:   43    charge:    2.0838    magn:    0.0000    constr:    0.0000
     atom:   44    charge:    2.0865    magn:    0.0000    constr:    0.0000
     atom:   45    charge:    2.0871    magn:    0.0000    constr:    0.0000
     atom:   46    charge:    3.1171    magn:   -0.0000    constr:    0.0000
     atom:   47    charge:    2.0797    magn:    0.0000    constr:    0.0000
     atom:   48    charge:    2.0835    magn:    0.0000    constr:    0.0000
     atom:   49    charge:    2.0519    magn:    0.0000    constr:    0.0000
     atom:   50    charge:    1.2628    magn:   -0.0000    constr:    0.0000
     atom:   51    charge:    1.2893    magn:    0.0000    constr:    0.0000

     End of self-consistent calculation

 ------ SPIN UP ------------

          k = 0.0000 0.0000 0.0000 ( 34665 PWs)   bands (ev):

   -57.8173 -57.7824 -57.5063 -57.4506 -57.3814 -57.3452 -57.2724 -57.2371
   -57.1746 -57.1393 -57.1107 -57.0754 -56.8786 -56.8062 -56.2796 -56.2443
   -34.2537 -34.0984 -34.0699 -34.0531 -34.0189 -33.9245 -33.8638 -33.8573
   -33.8203 -33.7658 -33.7261 -33.7157 -33.7119 -33.6810 -33.6659 -33.6616
   -33.6424 -33.6330 -33.6107 -33.5509 -33.5182 -33.4537 -33.4521 -33.4331
   -33.4261 -33.4234 -33.3824 -33.3765 -33.3727 -33.3546 -33.3502 -33.3299
   -33.3068 -33.3006 -33.2736 -33.2676 -33.2420 -33.1397 -33.1349 -33.0777
   -33.0336 -32.9330 -32.6983 -32.6307 -32.6047 -32.5023 -32.4105 -32.3023
   -24.3096 -21.0885 -18.1696 -17.9696 -17.7457 -17.6239 -17.4891 -17.4875
   -17.2064 -17.1863 -17.1396 -17.0485 -17.0449 -17.0043 -16.9876 -16.9147
   -16.8676 -16.8559 -16.8323 -16.7922 -16.7314 -16.6842 -16.5657 -16.5437
   -16.5150 -16.5006 -16.4158 -16.3060 -16.2702 -16.2390 -16.1025 -16.0728
   -14.8619 -14.7771  -9.7877  -7.5466  -7.5270  -6.0051  -5.5617  -5.5057
    -5.3539  -5.3457  -5.2890  -4.9910  -4.9324  -4.5817  -4.5785  -4.5429
    -4.5328  -4.4855  -4.3619  -4.2649  -4.2161  -4.1985  -4.1646  -4.1615
    -4.1581  -4.1495  -4.0849  -4.0806  -4.0032  -3.9813  -3.9498  -3.9075
    -3.8749  -3.8002  -3.7676  -3.7432  -3.7135  -3.6380  -3.6166  -3.5416
    -3.5386  -3.5132  -3.4463  -3.3279  -3.1970  -3.1610  -3.0593  -2.9995
    -2.9674  -2.8699  -2.8397  -2.8087  -2.7367  -2.7346  -2.7198  -2.5951
    -2.5567  -2.5014  -2.4303  -2.3935  -2.3656  -2.3464  -2.3198  -2.2764
    -2.2735  -2.2414  -2.2057  -2.1787  -2.1697  -2.0446  -1.9877  -1.8874
    -1.7457  -1.7432  -1.7153  -1.6756  -1.6467  -1.6359  -1.5583  -1.5356
    -1.4367  -1.4270  -1.4032  -1.3909  -1.3813  -1.2773  -1.2263  -1.2169
    -1.1962  -1.1268  -1.0661  -1.0104  -0.9117  -0.7375  -0.7083  -0.7036
    -0.6395  -0.5119  -0.3664  -0.2296  -0.1660  -0.0029   0.1237   0.1388
     1.5246   1.5537   1.8389   1.8772   1.8868   1.9083   2.0756   2.0944
     2.1293   2.2461   2.3649   2.3783   2.4130   2.4326   2.4704   2.4866
     2.5323   2.5700   2.6414   2.6729   2.6831   2.7581   2.7687   2.8337
     2.8749   2.9019   2.9926   3.0013   3.0026   3.0291   3.0709   3.0887
     3.0982   3.1050   3.1111   3.1449   3.2443   3.3034   3.3095   3.3460
     3.3586   3.3891   3.4241   3.5373   3.5404   3.6775   3.8842   3.9903
     4.0184   4.0485   4.0611   4.1864   4.2583   4.4651   4.5355   4.6635
     4.9131   4.9205   5.0174   5.1260   5.2116   5.3945   5.4009   5.4275
     5.5040   5.5877   5.6352   5.6430   5.7214   5.7388   5.7434   5.7502
     5.9274   5.9618   6.0166   6.0279   6.1046   6.1487   6.2039   6.2259
     6.4807   6.6179   6.7743   6.7889   6.8865   7.1691   7.2236   7.2798
     7.8921   7.9842   8.1600   8.3907   8.7078   8.9026   8.9151   8.9538
     9.2049   9.2579   9.2896   9.3509

[...]

          k =-0.0759 0.0000 0.0000 ( 34758 PWs)   bands (ev):

[...]

 ------ SPIN DOWN ----------

[...]

          k = 0.0506-0.0840 0.0000 ( 34628 PWs)   bands (ev):

[...]

          k =-0.0506 0.0560 0.0000 ( 34596 PWs)   bands (ev):

   -57.8086 -57.7912 -57.5016 -57.4555 -57.3730 -57.3537 -57.2636 -57.2459
   -57.1660 -57.1481 -57.1021 -57.0843 -56.8749 -56.8102 -56.2709 -56.2533
   -34.1593 -34.0911 -34.0768 -33.9939 -33.9641 -33.9570 -33.9479 -33.7980
   -33.7680 -33.7580 -33.7440 -33.7069 -33.6983 -33.6860 -33.6719 -33.6687
   -33.5826 -33.5722 -33.5679 -33.5302 -33.5275 -33.5098 -33.4766 -33.4573
   -33.4461 -33.4326 -33.4012 -33.3752 -33.3736 -33.3620 -33.3541 -33.3503
   -33.3336 -33.3207 -33.2972 -33.2952 -33.2606 -33.1404 -33.1285 -33.0806
   -33.0515 -33.0286 -32.6262 -32.6107 -32.6017 -32.4797 -32.4338 -32.4040
   -24.3095 -21.0880 -17.8654 -17.6213 -17.4458 -17.4235 -17.4058 -17.3337
   -17.2950 -17.2621 -17.1899 -17.1576 -17.0857 -17.0664 -17.0003 -16.9796
   -16.9773 -16.9079 -16.8978 -16.8315 -16.7933 -16.7666 -16.7006 -16.6549
   -16.5511 -16.4501 -16.4076 -16.3087 -16.3076 -16.2793 -16.2428 -16.1766
   -14.8872 -14.8510  -9.7850  -7.5513  -7.5259  -6.0011  -5.2075  -4.7769
    -4.7255  -4.7152  -4.6774  -4.6414  -4.6309  -4.5942  -4.4890  -4.4711
    -4.4461  -4.4308  -4.3393  -4.2866  -4.2703  -4.2644  -4.2219  -4.2017
    -4.1773  -4.1647  -4.1510  -4.1240  -4.0712  -4.0342  -4.0230  -3.9929
    -3.9378  -3.8784  -3.8130  -3.7774  -3.6749  -3.6459  -3.5028  -3.4765
    -3.4586  -3.3909  -3.3727  -3.1983  -3.1130  -3.0704  -3.0233  -2.9798
    -2.9603  -2.9065  -2.8882  -2.8502  -2.8078  -2.7609  -2.7067  -2.7023
    -2.6312  -2.6135  -2.5855  -2.5090  -2.4802  -2.4616  -2.4451  -2.4225
    -2.3933  -2.3508  -2.2806  -2.2683  -2.2435  -2.2182  -2.1713  -2.1583
    -2.0859  -2.0461  -2.0153  -1.9742  -1.9287  -1.8474  -1.7792  -1.7632
    -1.6954  -1.5953  -1.5217  -1.4771  -1.4426  -1.3646  -1.3283  -1.2192
    -1.1674  -1.1293  -1.0853  -1.0236  -0.9802  -0.9158  -0.9029  -0.8242
    -0.7923  -0.7776  -0.6475  -0.4581  -0.0480  -0.0108   0.0025   0.0586
     1.7463   1.9441   1.9633   2.0262   2.0816   2.1208   2.1312   2.1846
     2.2310   2.2779   2.3946   2.4305   2.4392   2.4652   2.4836   2.5096
     2.6044   2.6205   2.6529   2.6752   2.7273   2.7962   2.8144   2.8535
     2.9028   2.9142   2.9539   2.9855   3.0358   3.0750   3.1993   3.2274
     3.2481   3.2754   3.3253   3.3367   3.3808   3.3967   3.4188   3.4770
     3.5551   3.6011   3.6170   3.6990   3.7490   3.7780   3.7884   3.8045
     3.8460   3.9784   4.0307   4.1571   4.2156   4.4613   4.6558   4.6850
     4.7578   4.7608   4.9040   5.0100   5.0816   5.1485   5.2187   5.2445
     5.3148   5.4734   5.5684   5.6394   5.6903   5.7470   5.8380   5.9784
     6.0190   6.1237   6.1720   6.2155   6.2636   6.3113   6.4722   6.4892
     6.5542   6.5982   6.6393   6.6888   6.8159   6.8553   6.9574   7.3012
     7.3343   7.7188   7.7577   8.0174   8.0915   8.1739   8.5727   8.6642
     8.8349   8.9096   9.1406   9.3642

     the Fermi energy is     0.8724 ev

!    total energy              =   -3044.95833915 Ry
     Harris-Foulkes estimate   =   -3044.95833932 Ry
     estimated scf accuracy    <       0.00000013 Ry

     The total energy is the sum of the following terms:

     one-electron contribution =  -40855.91951333 Ry
     hartree contribution      =   20500.36454108 Ry
     xc contribution           =    -557.17791923 Ry
     ewald contribution        =   17867.77475750 Ry
     smearing contrib. (-TS)   =      -0.00020518 Ry

     total magnetization       =     0.00 Bohr mag/cell
     absolute magnetization    =     0.00 Bohr mag/cell

     convergence has been achieved in  10 iterations

     Forces acting on atoms (Ry/au):

     negative rho (up, down):  1.158E-02 1.158E-02
     atom    1 type  1   force =    -0.00008524    0.00030646   -0.13596423
     atom    2 type  2   force =     0.00010291   -0.00008149    0.07514541
     atom    3 type  1   force =     0.00126482    0.00109073   -0.05982404
     atom    4 type  2   force =     0.00661193   -0.00006897    0.00967370
     atom    5 type  1   force =    -0.00132389   -0.00013780    0.00004107
     atom    6 type  2   force =    -0.00186859   -0.00356430   -0.00904942
     atom    7 type  1   force =     0.01131552    0.00822137   -0.01676583
     atom    8 type  2   force =     0.00040091   -0.00012491    0.00073957
     atom    9 type  1   force =     0.00012850    0.00035373   -0.13603425
     atom   10 type  2   force =     0.00016641   -0.00003216    0.07508937
     atom   11 type  1   force =     0.00126093   -0.00086260   -0.05995428
     atom   12 type  2   force =     0.00604351   -0.00011049    0.00853836
     atom   13 type  1   force =     0.00014852   -0.00015321   -0.00032460
     atom   14 type  2   force =    -0.00205046    0.00298204   -0.00911778
     atom   15 type  1   force =     0.01148915   -0.00803390   -0.01703627
     atom   16 type  2   force =     0.00705891    0.00009108    0.01085000
     atom   17 type  2   force =    -0.00002595   -0.00005623    0.07998223
     atom   18 type  1   force =    -0.00006292    0.00022834    0.11912221
     atom   19 type  2   force =     0.00038925    0.00019025   -0.06814476
     atom   20 type  2   force =    -0.06269153    0.00005072   -0.03210775
     atom   21 type  2   force =     0.06273985    0.00015145   -0.03257780
     atom   22 type  1   force =    -0.00049136   -0.00012375    0.06430787
     atom   23 type  2   force =     0.00015589    0.00062340   -0.00268069
     atom   24 type  2   force =     0.00049480    0.00004148   -0.02243893
     atom   25 type  2   force =    -0.00645398   -0.00025333    0.00823036
     atom   26 type  1   force =    -0.00012053   -0.00005387    0.00251444
     atom   27 type  2   force =     0.00254705   -0.00144877   -0.00236728
     atom   28 type  2   force =    -0.00005502   -0.00001564   -0.00149432
     atom   29 type  2   force =     0.00012705   -0.00005266   -0.00054202
     atom   30 type  1   force =     0.00576179    0.00035030   -0.00083855
     atom   31 type  2   force =    -0.00205764    0.00156592    0.00122034
     atom   32 type  2   force =     0.00161423   -0.00009791    0.00192612
     atom   33 type  2   force =    -0.00000037    0.00015240    0.08005115
     atom   34 type  1   force =    -0.00007866    0.00023466    0.11913177
     atom   35 type  2   force =     0.00035663    0.00032580   -0.06809291
     atom   36 type  2   force =    -0.06268607    0.00009702   -0.03231886
     atom   37 type  2   force =     0.06285196    0.00017317   -0.03207325
     atom   38 type  1   force =    -0.00069694    0.00001074    0.06414053
     atom   39 type  2   force =     0.00019317   -0.00082287   -0.00266489
     atom   40 type  2   force =     0.00060338   -0.00227598   -0.02259358
     atom   41 type  2   force =    -0.00619789   -0.00030813    0.00763173
     atom   42 type  1   force =    -0.00010425   -0.00008926    0.00252164
     atom   43 type  2   force =     0.00260048    0.00143711   -0.00239743
     atom   44 type  2   force =     0.00034796   -0.00012860   -0.00072637
     atom   45 type  2   force =    -0.00021422   -0.00006175   -0.00096232
     atom   46 type  1   force =    -0.01938701    0.00042626   -0.00524133
     atom   47 type  2   force =    -0.00206363   -0.00140970    0.00123819
     atom   48 type  2   force =    -0.00105765   -0.00044656   -0.02868627
     atom   49 type  2   force =    -0.04635557    0.00063996    0.18209642
     atom   50 type  3   force =    -0.02364034    0.00121802   -0.00772798
     atom   51 type  3   force =     0.05299418   -0.00014757   -0.10344450

     Total force =     0.433209     Total SCF correction =     0.000965
 !ASE

     Writing output data file calc.save

     General routines

     Parallel routines

   This run was terminated on:  11:19:27  10Mar2018

   JOB DONE.