     Program PWSCF v.5.1rc2 (svn rev. ) starts on 12Feb2018 at  7: 8:57

     Current dimensions of program PWSCF are:
     Max number of different atomic species (ntypx) = 10
     Max number of k-points (npk) =  40000
     Max angular momentum in pseudopotentials (lmaxx) =  3

     IMPORTANT: XC functional enforced from input :
     Exchange-correlation      = BEEF ( 1  4 27 13 2)
     Any further DFT definition will be discarded
     Please, verify this is what you really want

     Subspace diagonalization in iterative solution of the eigenvalue problem:
     a serial algorithm will be used

     Generating pointlists ...
     new r_m :   0.4125 (alat units)  0.7795 (a.u.) for type    1
     new r_m :   0.3995 (alat units)  0.7549 (a.u.) for type    2
     new r_m :   0.4125 (alat units)  0.7795 (a.u.) for type    3
     new r_m :   0.3995 (alat units)  0.7549 (a.u.) for type    4

     bravais-lattice index     =            0
     lattice parameter (alat)  =       1.8897  a.u.
     unit-cell volume          =    7990.9933 (a.u.)^3
     number of atoms/cell      =           54
     number of atomic types    =            4
     number of electrons       =       398.00
     number of Kohn-Sham states=          299
     kinetic-energy cutoff     =      40.4243  Ry
     charge density cutoff     =     404.2426  Ry
     convergence threshold     =      7.3E-07
     mixing beta               =       0.1000
     number of iterations used =           10  plain     mixing
     Exchange-correlation      = BEEF ( 1  4 27 13 2)
     nstep                     =           50

     celldm(1)=   1.889726  celldm(2)=   0.000000  celldm(3)=   0.000000
     celldm(4)=   0.000000  celldm(5)=   0.000000  celldm(6)=   0.000000

     crystal axes: (cart. coord. in units of alat)
               a(1) = (   6.590708   0.000000   0.000000 )
               a(2) = (   0.000000   5.950229   0.000000 )
               a(3) = (   0.000000   0.000000  30.195235 )

     reciprocal axes: (cart. coord. in units 2 pi/alat)
               b(1) = (  0.151729  0.000000  0.000000 )
               b(2) = (  0.000000  0.168061  0.000000 )
               b(3) = (  0.000000  0.000000  0.033118 )

     PseudoPot. # 1 for Ti read from file:
     /home/alatimer/bin/psp/esp_psp_w_gbrvRu/Ti.UPF
     MD5 check sum: 8e4df49b7f0d34bbd5052bf3f5ea0213
     Pseudo is Ultrasoft, Zval = 12.0
     Generated by new atomic code, or converted to UPF format
     Using radial grid of  851 points,  6 beta functions with:
                l(1) =   0
                l(2) =   0
                l(3) =   1
                l(4) =   1
                l(5) =   2
                l(6) =   2
     Q(r) pseudized with  8 coefficients,  rinner =    1.000   1.000   1.000
                                                       1.000   1.000

     PseudoPot. # 2 for  O read from file:
     /home/alatimer/bin/psp/esp_psp_w_gbrvRu/O.UPF
     MD5 check sum: e057bbcf3229fb5d8c36c0c92f9568b4
     Pseudo is Ultrasoft + core correction, Zval =  6.0
     Generated using "atomic" code by A. Dal Corso  v.5.0.2 svn rev. 9415
     Using radial grid of 1095 points,  4 beta functions with:
                l(1) =   0
                l(2) =   0
                l(3) =   1
                l(4) =   1
     Q(r) pseudized with 0 coefficients

     PseudoPot. # 3 for  C read from file:
     /home/alatimer/bin/psp/esp_psp_w_gbrvRu/C.UPF
     MD5 check sum: ab446d787031eba755f1d5ee46644bb0
     Pseudo is Ultrasoft + core correction, Zval =  4.0
     Generated using "atomic" code by A. Dal Corso  v.5.0.2 svn rev. 9415
     Using radial grid of 1073 points,  4 beta functions with:
                l(1) =   0
                l(2) =   0
                l(3) =   1
                l(4) =   1
     Q(r) pseudized with 0 coefficients

     PseudoPot. # 4 for  H read from file:
     /home/alatimer/bin/psp/esp_psp_w_gbrvRu/H.UPF
     MD5 check sum: bd57da0722753ddfd9833a65b40bb853
     Pseudo is Ultrasoft, Zval =  1.0
     Generated using "atomic" code by A. Dal Corso  v.5.0.2 svn rev. 9415
     Using radial grid of  929 points,  2 beta functions with:
                l(1) =   0
                l(2) =   0
     Q(r) pseudized with 0 coefficients

     vdW kernel table read from file vdW_kernel_table
     MD5 check sum: 095c7af220d748ca6e76c0b4c6cfb241

     atomic species   valence    mass     pseudopotential
        Ti1           12.00    47.88000     Ti( 1.00)
        O1             6.00    15.99940      O( 1.00)
        C1             4.00    12.01100      C( 1.00)
        H1             1.00     1.00794      H( 1.00)

     Starting magnetic structure
     atomic species   magnetization
        Ti1          0.250
        O1           0.500
        C1           0.750
        H1           0.000

     No symmetry found

   Cartesian axes

     site n.     atom                  positions (alat units)
         1           Ti1 tau(   1) = (   1.6476770   0.7437786   2.6545865  )
         2           O1  tau(   2) = (   1.6476770   2.2313359   3.9361215  )
         3           Ti1 tau(   3) = (   1.6476770   2.2313359   5.9499405  )
         4           O1  tau(   4) = (   0.3661420   0.7437786   5.9499405  )
         5           Ti1 tau(   5) = (   1.7592931   0.7557636   9.1813031  )
         6           O1  tau(   6) = (   1.6162490   2.2572048  10.5951269  )
         7           Ti1 tau(   7) = (   1.5595004   2.2680265  12.4668274  )
         8           O1  tau(   8) = (   0.3709531   0.7738127  12.6996540  )
         9           Ti1 tau(   9) = (   1.6476770   3.7188931   2.6545865  )
        10           O1  tau(  10) = (   1.6476770   5.2064503   3.9361215  )
        11           Ti1 tau(  11) = (   1.6476770   5.2064503   5.9499405  )
        12           O1  tau(  12) = (   0.3661420   3.7188931   5.9499405  )
        13           Ti1 tau(  13) = (   1.7607536   3.7112867   9.1949733  )
        14           O1  tau(  14) = (   1.6133076   5.2250699  10.5465640  )
        15           Ti1 tau(  15) = (   1.6492307   5.2431137  12.3448001  )
        16           O1  tau(  16) = (   0.3719744   3.7598389  12.7007434  )
        17           O1  tau(  17) = (   1.6476770   2.2313359   1.3730516  )
        18           Ti1 tau(  18) = (   4.9430310   2.2313359   2.6545865  )
        19           O1  tau(  19) = (   4.9430310   2.2313359   4.6684056  )
        20           O1  tau(  20) = (   6.2245660   0.7437786   2.6545865  )
        21           O1  tau(  21) = (   3.6614961   0.7437786   2.6545865  )
        22           Ti1 tau(  22) = (   4.9430310   0.7437786   5.9499405  )
        23           O1  tau(  23) = (   1.6387103   2.2391978   8.0037664  )
        24           O1  tau(  24) = (   4.9430310   2.2313359   7.2314755  )
        25           O1  tau(  25) = (   2.9292120   0.7437786   5.9499405  )
        26           Ti1 tau(  26) = (   5.0158092   2.2383949   9.3973727  )
        27           O1  tau(  27) = (   4.9391445   2.2276729  11.2675731  )
        28           O1  tau(  28) = (   6.2094020   0.7514556   9.2742047  )
        29           O1  tau(  29) = (   3.6131301   0.7515640   9.2682932  )
        30           Ti1 tau(  30) = (   4.8940083   0.8207741  12.7348365  )
        31           O1  tau(  31) = (   4.8487174   2.2703822  13.8475395  )
        32           O1  tau(  32) = (   2.8766274   0.7418004  12.6316555  )
        33           O1  tau(  33) = (   1.6476770   5.2064503   1.3730516  )
        34           Ti1 tau(  34) = (   4.9430310   5.2064503   2.6545865  )
        35           O1  tau(  35) = (   4.9430310   5.2064503   4.6684056  )
        36           O1  tau(  36) = (   6.2245660   3.7188931   2.6545865  )
        37           O1  tau(  37) = (   3.6614961   3.7188931   2.6545865  )
        38           Ti1 tau(  38) = (   4.9430310   3.7188931   5.9499405  )
        39           O1  tau(  39) = (   1.6418458   5.2133935   8.0066417  )
        40           O1  tau(  40) = (   4.9430310   5.2064503   7.2314755  )
        41           O1  tau(  41) = (   2.9292120   3.7188931   5.9499405  )
        42           Ti1 tau(  42) = (   5.0218241   5.2139137   9.3870600  )
        43           O1  tau(  43) = (   4.9399496   5.2040061  11.2598200  )
        44           O1  tau(  44) = (   6.2073000   3.7245411   9.2731052  )
        45           O1  tau(  45) = (   3.6137513   3.7232133   9.2682466  )
        46           Ti1 tau(  46) = (   4.8936935   3.8094630  12.7397413  )
        47           O1  tau(  47) = (   4.9051259   5.2510468  13.8339921  )
        48           O1  tau(  48) = (   2.8743370   3.7938830  12.6403791  )
        49           C1  tau(  49) = (   1.0587210   2.2268971  15.9066084  )
        50           O1  tau(  50) = (   1.8917182   2.2355032  14.7378010  )
        51           H1  tau(  51) = (   0.0310076   2.2200215  15.5603933  )
        52           H1  tau(  52) = (   2.8355400   2.2288152  14.9543747  )
        53           H1  tau(  53) = (   1.2478062   1.3326534  16.5039879  )
        54           H1  tau(  54) = (   1.2341453   3.1195140  16.5098874  )

     number of k points=    40  Fermi-Dirac smearing, width (Ry)=  0.0073
                       cart. coord. in units 2pi/alat
        k(    1) = (   0.0000000   0.0000000   0.0000000), wk =   0.0277778
        k(    2) = (   0.0000000   0.0280101   0.0000000), wk =   0.0555556
        k(    3) = (   0.0000000   0.0560203   0.0000000), wk =   0.0555556
        k(    4) = (   0.0000000  -0.0840304   0.0000000), wk =   0.0277778
        k(    5) = (   0.0252881   0.0000000   0.0000000), wk =   0.0555556
        k(    6) = (   0.0252881   0.0280101   0.0000000), wk =   0.0555556
        k(    7) = (   0.0252881   0.0560203   0.0000000), wk =   0.0555556
        k(    8) = (   0.0252881  -0.0840304   0.0000000), wk =   0.0555556
        k(    9) = (   0.0505763   0.0000000   0.0000000), wk =   0.0555556
        k(   10) = (   0.0505763   0.0280101   0.0000000), wk =   0.0555556
        k(   11) = (   0.0505763   0.0560203   0.0000000), wk =   0.0555556
        k(   12) = (   0.0505763  -0.0840304   0.0000000), wk =   0.0555556
        k(   13) = (  -0.0758644   0.0000000   0.0000000), wk =   0.0277778
        k(   14) = (  -0.0758644   0.0280101   0.0000000), wk =   0.0555556
        k(   15) = (  -0.0758644   0.0560203   0.0000000), wk =   0.0555556
        k(   16) = (  -0.0758644  -0.0840304   0.0000000), wk =   0.0277778
        k(   17) = (  -0.0252881   0.0280101   0.0000000), wk =   0.0555556
        k(   18) = (  -0.0252881   0.0560203   0.0000000), wk =   0.0555556
        k(   19) = (  -0.0505763   0.0280101   0.0000000), wk =   0.0555556
        k(   20) = (  -0.0505763   0.0560203   0.0000000), wk =   0.0555556
        k(   21) = (   0.0000000   0.0000000   0.0000000), wk =   0.0277778
        k(   22) = (   0.0000000   0.0280101   0.0000000), wk =   0.0555556
        k(   23) = (   0.0000000   0.0560203   0.0000000), wk =   0.0555556
        k(   24) = (   0.0000000  -0.0840304   0.0000000), wk =   0.0277778
        k(   25) = (   0.0252881   0.0000000   0.0000000), wk =   0.0555556
        k(   26) = (   0.0252881   0.0280101   0.0000000), wk =   0.0555556
[...]
     atom:   47    charge:    1.8918    magn:    0.9524    constr:    0.0000
     atom:   48    charge:    1.9014    magn:    0.9489    constr:    0.0000
     atom:   49    charge:    0.6000    magn:    0.4027    constr:    0.0000
     atom:   50    charge:    1.8610    magn:    0.9146    constr:    0.0000
     atom:   51    charge:    0.2830    magn:    0.0534    constr:    0.0000
     atom:   52    charge:    0.3361    magn:    0.0639    constr:    0.0000
     atom:   53    charge:    0.2762    magn:    0.0500    constr:    0.0000
     atom:   54    charge:    0.2765    magn:    0.0501    constr:    0.0000

     total energy              =   -2909.21585938 Ry
     Harris-Foulkes estimate   =   -3019.36994314 Ry
     estimated scf accuracy    <     596.48993762 Ry

     total magnetization       =    44.52 Bohr mag/cell
     absolute magnetization    =    49.86 Bohr mag/cell

[...]

     iteration # 18     ecut=    40.42 Ry     beta=0.10
     Davidson diagonalization with overlap
     c_bands:  1 eigenvalues not converged
     ethr =  3.76E-06,  avg # of iterations =  6.4

[...]

     total energy              =   -3021.42013875 Ry
     Harris-Foulkes estimate   =   -3021.42012818 Ry
     estimated scf accuracy    <       0.00000076 Ry

[...]

     iteration # 30     ecut=    40.42 Ry     beta=0.10
     Davidson diagonalization with overlap
     ethr =  1.90E-10,  avg # of iterations =  3.0

     negative rho (up, down):  1.209E-02 1.209E-02

     Magnetic moment per site:
     atom:    1    charge:    3.1250    magn:   -0.0002    constr:    0.0000
     atom:    2    charge:    1.9452    magn:    0.0000    constr:    0.0000
     atom:    3    charge:    3.1198    magn:    0.0000    constr:    0.0000
     atom:    4    charge:    1.9504    magn:   -0.0001    constr:    0.0000
     atom:    5    charge:    3.1166    magn:    0.0000    constr:    0.0000
     atom:    6    charge:    1.9476    magn:   -0.0001    constr:    0.0000
     atom:    7    charge:    3.1157    magn:    0.0001    constr:    0.0000
     atom:    8    charge:    1.9452    magn:   -0.0001    constr:    0.0000
     atom:    9    charge:    3.1250    magn:   -0.0002    constr:    0.0000
     atom:   10    charge:    1.9452    magn:    0.0000    constr:    0.0000
     atom:   11    charge:    3.1197    magn:    0.0000    constr:    0.0000
     atom:   12    charge:    1.9504    magn:   -0.0001    constr:    0.0000
     atom:   13    charge:    3.1158    magn:    0.0000    constr:    0.0000
     atom:   14    charge:    1.9587    magn:   -0.0001    constr:    0.0000
     atom:   15    charge:    3.1188    magn:    0.0001    constr:    0.0000
     atom:   16    charge:    1.9445    magn:   -0.0001    constr:    0.0000
     atom:   17    charge:    1.9184    magn:    0.0005    constr:    0.0000
     atom:   18    charge:    3.1240    magn:   -0.0001    constr:    0.0000
     atom:   19    charge:    1.9408    magn:   -0.0000    constr:    0.0000
     atom:   20    charge:    1.9471    magn:    0.0000    constr:    0.0000
     atom:   21    charge:    1.9471    magn:    0.0000    constr:    0.0000
     atom:   22    charge:    3.1196    magn:    0.0000    constr:    0.0000
     atom:   23    charge:    1.9566    magn:   -0.0001    constr:    0.0000
     atom:   24    charge:    1.9379    magn:   -0.0001    constr:    0.0000
     atom:   25    charge:    1.9505    magn:   -0.0001    constr:    0.0000
     atom:   26    charge:    3.1145    magn:    0.0001    constr:    0.0000
     atom:   27    charge:    1.9398    magn:   -0.0001    constr:    0.0000
     atom:   28    charge:    1.9517    magn:   -0.0001    constr:    0.0000
     atom:   29    charge:    1.9476    magn:   -0.0001    constr:    0.0000
     atom:   30    charge:    3.1167    magn:    0.0000    constr:    0.0000
     atom:   31    charge:    1.9447    magn:   -0.0000    constr:    0.0000
     atom:   32    charge:    1.9440    magn:   -0.0001    constr:    0.0000
     atom:   33    charge:    1.9184    magn:    0.0005    constr:    0.0000
     atom:   34    charge:    3.1240    magn:   -0.0001    constr:    0.0000
     atom:   35    charge:    1.9408    magn:   -0.0000    constr:    0.0000
     atom:   36    charge:    1.9471    magn:    0.0000    constr:    0.0000
     atom:   37    charge:    1.9471    magn:    0.0000    constr:    0.0000
     atom:   38    charge:    3.1196    magn:    0.0000    constr:    0.0000
     atom:   39    charge:    1.9549    magn:   -0.0001    constr:    0.0000
     atom:   40    charge:    1.9383    magn:   -0.0001    constr:    0.0000
     atom:   41    charge:    1.9505    magn:   -0.0001    constr:    0.0000
     atom:   42    charge:    3.1141    magn:    0.0001    constr:    0.0000
     atom:   43    charge:    1.9413    magn:   -0.0001    constr:    0.0000
     atom:   44    charge:    1.9518    magn:   -0.0001    constr:    0.0000
     atom:   45    charge:    1.9468    magn:   -0.0001    constr:    0.0000
     atom:   46    charge:    3.1165    magn:    0.0000    constr:    0.0000
     atom:   47    charge:    1.9431    magn:   -0.0000    constr:    0.0000
     atom:   48    charge:    1.9444    magn:   -0.0001    constr:    0.0000
     atom:   49    charge:    0.6581    magn:   -0.0001    constr:    0.0000
     atom:   50    charge:    1.9578    magn:   -0.0001    constr:    0.0000
     atom:   51    charge:    0.4022    magn:    0.0000    constr:    0.0000
     atom:   52    charge:    0.4006    magn:    0.0000    constr:    0.0000
     atom:   53    charge:    0.4033    magn:    0.0000    constr:    0.0000
     atom:   54    charge:    0.4039    magn:    0.0000    constr:    0.0000

     End of self-consistent calculation

 ------ SPIN UP ------------

          k = 0.0000 0.0000 0.0000 ( 34665 PWs)   bands (ev):

   -57.6985 -57.6636 -57.3185 -57.2822 -57.2333 -57.1103 -57.0740 -57.0731
   -57.0517 -57.0383 -56.9910 -56.9555 -56.7313 -56.6939 -56.1490 -56.1137
   -34.1345 -33.9802 -33.9517 -33.8993 -33.8704 -33.8050 -33.7447 -33.6539
   -33.6188 -33.6055 -33.5681 -33.5412 -33.5191 -33.5080 -33.4903 -33.4860
   -33.4652 -33.4547 -33.4318 -33.3991 -33.3245 -33.2923 -33.2720 -33.2628
   -33.2555 -33.2548 -33.2436 -33.2435 -33.2375 -33.2299 -33.2298 -33.2128
   -33.1809 -33.1806 -33.1751 -33.1414 -33.1189 -32.9972 -32.9790 -32.9581
   -32.9088 -32.8058 -32.5667 -32.5010 -32.4749 -32.3708 -32.2791 -32.1709
   -20.3000 -18.0125 -17.8414 -17.5570 -17.4619 -17.3726 -17.2517 -17.0775
   -17.0664 -16.9744 -16.9386 -16.8843 -16.7839 -16.7776 -16.7292 -16.7073
   -16.7034 -16.6625 -16.6112 -16.6046 -16.5359 -16.4155 -16.4029 -16.3986
   -16.3214 -16.2677 -16.1945 -16.1676 -16.1502 -15.9796 -15.9299 -14.7354
   -14.6518 -11.4649  -7.2403  -5.4727  -5.3954  -5.3142  -5.2053  -5.2037
    -5.1458  -5.1268  -4.8392  -4.8173  -4.4720  -4.4431  -4.3595  -4.3556
    -4.3219  -4.2325  -4.0900  -4.0612  -4.0557  -4.0179  -3.9992  -3.9914
    -3.9604  -3.9522  -3.9511  -3.8400  -3.7885  -3.7659  -3.7368  -3.7190
    -3.6326  -3.6170  -3.5871  -3.5778  -3.5198  -3.5080  -3.4087  -3.3938
    -3.3735  -3.2722  -3.2374  -3.1902  -3.0136  -2.9358  -2.8787  -2.8338
    -2.6949  -2.6072  -2.5898  -2.5803  -2.5755  -2.5686  -2.4320  -2.4144
    -2.3362  -2.2692  -2.2473  -2.2049  -2.2004  -2.1662  -2.1386  -2.0930
    -2.0479  -2.0289  -2.0202  -1.8867  -1.8660  -1.7621  -1.7361  -1.6242
    -1.5431  -1.5413  -1.4903  -1.4808  -1.4631  -1.4234  -1.3235  -1.3093
    -1.3023  -1.2798  -1.2428  -1.1357  -1.0868  -1.0816  -1.0673  -1.0200
    -0.9543  -0.9156  -0.8202  -0.7648  -0.6104  -0.5874  -0.5697  -0.4792
    -0.3764  -0.2431  -0.0856  -0.0264   0.1305   0.2468   0.2607   1.6428
     1.6752   1.9852   2.0025   2.0646   2.0944   2.2046   2.2431   2.2862
     2.4287   2.4966   2.5254   2.5307   2.5413   2.6306   2.6486   2.6571
     2.7149   2.7990   2.8263   2.8381   2.9102   2.9989   3.0326   3.0983
     3.1053   3.1134   3.1605   3.2014   3.2074   3.2273   3.2392   3.2507
     3.2611   3.2884   3.3963   3.4323   3.4560   3.4657   3.5285   3.5851
     3.6525   3.6942   3.8072   3.9807   4.0158   4.0912   4.1803   4.3205
     4.3380   4.3918   4.5862   4.5995   4.8105   4.8389   5.0875   5.1673
     5.2460   5.3319   5.4790   5.5179   5.5277   5.5933   5.6782   5.7121
     5.8004   5.8658   5.8769   5.8870   5.9556   6.0391   6.0491   6.0726
     6.1452   6.2296   6.2435   6.2975   6.3786   6.5824   6.6365   6.7561
     6.8411   7.0089   7.0396   7.1618   7.3028   7.5786   7.9092   8.2528
     8.3336   8.6770   8.7940   8.8725   8.9386   9.0077   9.1763   9.2562
     9.3516   9.3810   9.5314

[...]

          k =-0.0759 0.0000 0.0000 ( 34758 PWs)   bands (ev):

[...]

 ------ SPIN DOWN ----------

[...]

          k = 0.0506-0.0840 0.0000 ( 34628 PWs)   bands (ev):

[...]

          k =-0.0506 0.0560 0.0000 ( 34596 PWs)   bands (ev):

   -57.6907 -57.6733 -57.3087 -57.2903 -57.2308 -57.1012 -57.0814 -57.0638
   -57.0517 -57.0462 -56.9808 -56.9630 -56.7213 -56.7020 -56.1414 -56.1238
   -34.0411 -33.9744 -33.9601 -33.8755 -33.8459 -33.8295 -33.7732 -33.5959
   -33.5743 -33.5720 -33.5353 -33.5213 -33.5151 -33.5107 -33.4765 -33.4732
   -33.4529 -33.4260 -33.4035 -33.3534 -33.3178 -33.3171 -33.3007 -33.2987
   -33.2865 -33.2763 -33.2677 -33.2600 -33.2533 -33.2529 -33.2473 -33.2393
   -33.2099 -33.2001 -33.1702 -33.1643 -33.1255 -32.9877 -32.9775 -32.9618
   -32.9260 -32.9027 -32.4977 -32.4823 -32.4716 -32.3495 -32.3037 -32.2740
   -20.2993 -17.7062 -17.5001 -17.2914 -17.2397 -17.1978 -17.1732 -17.1619
   -17.0899 -17.0366 -17.0058 -16.9133 -16.8565 -16.8489 -16.8444 -16.8065
   -16.7761 -16.7221 -16.6627 -16.6226 -16.6129 -16.5507 -16.5125 -16.3991
   -16.3434 -16.2633 -16.2261 -16.1931 -16.1562 -16.1136 -16.0385 -14.7584
   -14.7227 -11.4602  -7.2302  -5.4265  -5.2171  -5.0218  -4.6587  -4.6168
    -4.5154  -4.4991  -4.4838  -4.4563  -4.4322  -4.3674  -4.3245  -4.3014
    -4.2256  -4.2056  -4.1459  -4.1318  -4.0825  -4.0671  -4.0459  -4.0364
    -4.0142  -3.9963  -3.9685  -3.9145  -3.8940  -3.8881  -3.8220  -3.7871
    -3.7306  -3.6598  -3.6300  -3.5226  -3.4877  -3.3752  -3.3284  -3.2616
    -3.2562  -3.2450  -3.1398  -3.0138  -2.9333  -2.9045  -2.8507  -2.8303
    -2.7563  -2.7265  -2.6847  -2.6096  -2.5916  -2.5675  -2.5288  -2.4898
    -2.4283  -2.4056  -2.3658  -2.3293  -2.3163  -2.2999  -2.2553  -2.1783
    -2.1525  -2.1211  -2.1142  -2.0772  -2.0474  -2.0022  -1.9841  -1.9017
    -1.8913  -1.8517  -1.8327  -1.7246  -1.6378  -1.6061  -1.5728  -1.4785
    -1.4085  -1.3748  -1.3074  -1.2499  -1.2062  -1.1104  -1.0740  -1.0174
    -1.0020  -0.9366  -0.8529  -0.8196  -0.7702  -0.7563  -0.6928  -0.6569
    -0.6513  -0.5177  -0.3246   0.0794   0.1137   0.1313   0.1947   1.8667
     2.0766   2.1658   2.1998   2.2211   2.2436   2.2987   2.3483   2.3935
     2.4037   2.5376   2.5706   2.5796   2.6076   2.6288   2.6837   2.7551
     2.7822   2.8046   2.8391   2.8814   2.9638   3.0048   3.0288   3.0626
     3.0977   3.1367   3.1681   3.2571   3.3361   3.3678   3.3974   3.4413
     3.4792   3.5002   3.5222   3.5429   3.6153   3.6477   3.7118   3.7442
     3.7803   3.8517   3.8805   3.9193   3.9252   3.9546   4.1116   4.1745
     4.2893   4.4738   4.7256   4.8070   4.8171   4.8969   4.9428   5.0925
     5.1660   5.2322   5.2722   5.3283   5.3727   5.4354   5.4961   5.6267
     5.7813   5.8308   5.8819   5.9526   6.0406   6.1248   6.2176   6.2602
     6.2872   6.3478   6.4167   6.4509   6.5039   6.5784   6.6498   6.7166
     6.7311   6.8248   6.8508   6.9846   7.0524   7.4123   7.4327   7.5771
     7.7461   7.9433   8.0726   8.3891   8.5749   8.6112   8.7429   9.0097
     9.2249   9.3248   9.4545

     the Fermi energy is     0.9972 ev

!    total energy              =   -3021.42018099 Ry
     Harris-Foulkes estimate   =   -3021.42013894 Ry
     estimated scf accuracy    <       0.00000036 Ry

     The total energy is the sum of the following terms:

     one-electron contribution =  -41241.39710729 Ry
     hartree contribution      =   20694.94785256 Ry
     xc contribution           =    -553.69078253 Ry
     ewald contribution        =   18078.72006757 Ry
     smearing contrib. (-TS)   =      -0.00021129 Ry

     total magnetization       =     0.00 Bohr mag/cell
     absolute magnetization    =     0.01 Bohr mag/cell

     convergence has been achieved in  30 iterations

     Forces acting on atoms (Ry/au):

     negative rho (up, down):  1.209E-02 1.209E-02
     atom    1 type  1   force =     0.00001267   -0.00035655   -0.13378749
     atom    2 type  2   force =     0.00000486    0.00002934    0.07214231
     atom    3 type  1   force =    -0.00135888    0.00030959   -0.06096246
     atom    4 type  2   force =     0.00289084    0.00048725    0.00638058
     atom    5 type  1   force =     0.00027524    0.00185421    0.00352129
     atom    6 type  2   force =     0.00005827    0.00000951   -0.00287155
     atom    7 type  1   force =    -0.00032943   -0.00074631    0.00452265
     atom    8 type  2   force =     0.00093276   -0.00020855   -0.00067854
     atom    9 type  1   force =    -0.00003097    0.00001996   -0.13354317
     atom   10 type  2   force =    -0.00006680    0.00006610    0.07132373
     atom   11 type  1   force =    -0.00132447   -0.00024138   -0.05587674
     atom   12 type  2   force =     0.00298378   -0.00006813    0.00609733
     atom   13 type  1   force =     0.00029364   -0.00148841    0.00346452
     atom   14 type  2   force =    -0.00120273   -0.00038665   -0.00289884
     atom   15 type  1   force =    -0.00055582    0.00020743    0.00448399
     atom   16 type  2   force =     0.00055792   -0.00018444   -0.00006499
     atom   17 type  2   force =    -0.00007034   -0.00007068    0.07939952
     atom   18 type  1   force =     0.00013693   -0.00016564    0.11911381
     atom   19 type  2   force =    -0.00010745   -0.00017385   -0.06669606
     atom   20 type  2   force =    -0.06323593    0.00014839   -0.03223571
     atom   21 type  2   force =     0.06321429    0.00001538   -0.03244109
     atom   22 type  1   force =     0.00072523    0.00108115    0.05974116
     atom   23 type  2   force =    -0.00017606    0.00005695   -0.00175398
     atom   24 type  2   force =    -0.00143278   -0.00000360   -0.02324445
     atom   25 type  2   force =    -0.00311836    0.00059018    0.00786702
     atom   26 type  1   force =     0.00064072    0.00028731    0.00459760
     atom   27 type  2   force =     0.00052335    0.00059800   -0.00380163
     atom   28 type  2   force =     0.00015926   -0.00008868   -0.00119763
     atom   29 type  2   force =     0.00021248   -0.00034433   -0.00058133
     atom   30 type  1   force =     0.00031225   -0.00069152    0.00382503
     atom   31 type  2   force =     0.00005222    0.00011182   -0.00261633
     atom   32 type  2   force =     0.00004658   -0.00005709   -0.00120061
     atom   33 type  2   force =    -0.00011866    0.00003783    0.07900214
     atom   34 type  1   force =     0.00007214   -0.00021842    0.11903284
     atom   35 type  2   force =    -0.00030384   -0.00005378   -0.06639602
     atom   36 type  2   force =    -0.06319563   -0.00005250   -0.03232329
     atom   37 type  2   force =     0.06334394   -0.00020220   -0.03247907
     atom   38 type  1   force =     0.00066442   -0.00098025    0.05996222
     atom   39 type  2   force =    -0.00045884    0.00010498   -0.00249874
     atom   40 type  2   force =    -0.00118870    0.00030686   -0.02215468
     atom   41 type  2   force =    -0.00315776   -0.00014967    0.00789297
     atom   42 type  1   force =     0.00052104    0.00006534    0.00371413
     atom   43 type  2   force =     0.00069195    0.00023482   -0.00297852
     atom   44 type  2   force =     0.00024458    0.00010201   -0.00115692
     atom   45 type  2   force =     0.00018904    0.00030955   -0.00061239
     atom   46 type  1   force =     0.00056172    0.00029402    0.00390261
     atom   47 type  2   force =     0.00006775   -0.00032052   -0.00131577
     atom   48 type  2   force =     0.00012336    0.00009981   -0.00094006
     atom   49 type  3   force =    -0.00120231   -0.00070317    0.00288021
     atom   50 type  2   force =     0.00124279   -0.00022858   -0.00315910
     atom   51 type  4   force =     0.00009350    0.00005304   -0.00006245
     atom   52 type  4   force =     0.00033776    0.00034752    0.00076910
     atom   53 type  4   force =     0.00010299    0.00101453   -0.00061896
     atom   54 type  4   force =     0.00034554   -0.00065796   -0.00048818

     Total force =     0.362620     Total SCF correction =     0.001135
 !ASE

     Writing output data file calc.save

     General routines

     Parallel routines

   This run was terminated on:   9: 8:48  12Feb2018

   JOB DONE.