     Program PWSCF v.5.1rc2 (svn rev. ) starts on 10Mar2018 at 12: 4:45

     Current dimensions of program PWSCF are:
     Max number of different atomic species (ntypx) = 10
     Max number of k-points (npk) =  40000
     Max angular momentum in pseudopotentials (lmaxx) =  3

     IMPORTANT: XC functional enforced from input :
     Exchange-correlation      = BEEF ( 1  4 27 13 2)
     Any further DFT definition will be discarded
     Please, verify this is what you really want

     Subspace diagonalization in iterative solution of the eigenvalue problem:
     a serial algorithm will be used

     Generating pointlists ...
     new r_m :   0.4125 (alat units)  0.7795 (a.u.) for type    1
     new r_m :   0.4125 (alat units)  0.7795 (a.u.) for type    2
     new r_m :   0.4125 (alat units)  0.7795 (a.u.) for type    3

     bravais-lattice index     =            0
     lattice parameter (alat)  =       1.8897  a.u.
     unit-cell volume          =    7990.9933 (a.u.)^3
     number of atoms/cell      =           51
     number of atomic types    =            3
     number of electrons       =       400.00
     number of Kohn-Sham states=          300
     kinetic-energy cutoff     =      40.4243  Ry
     charge density cutoff     =     404.2426  Ry
     convergence threshold     =      7.3E-07
     mixing beta               =       0.1000
     number of iterations used =           10  plain     mixing
     Exchange-correlation      = BEEF ( 1  4 27 13 2)
     nstep                     =           50

     celldm(1)=   1.889726  celldm(2)=   0.000000  celldm(3)=   0.000000
     celldm(4)=   0.000000  celldm(5)=   0.000000  celldm(6)=   0.000000

     crystal axes: (cart. coord. in units of alat)
               a(1) = (   6.590708   0.000000   0.000000 )
               a(2) = (   0.000000   5.950229   0.000000 )
               a(3) = (   0.000000   0.000000  30.195235 )

     reciprocal axes: (cart. coord. in units 2 pi/alat)
               b(1) = (  0.151729  0.000000  0.000000 )
               b(2) = (  0.000000  0.168061  0.000000 )
               b(3) = (  0.000000  0.000000  0.033118 )

     PseudoPot. # 1 for Ti read from file:
     /home/alatimer/bin/psp/esp_psp_w_gbrvRu/Ti.UPF
     MD5 check sum: 8e4df49b7f0d34bbd5052bf3f5ea0213
     Pseudo is Ultrasoft, Zval = 12.0
     Generated by new atomic code, or converted to UPF format
     Using radial grid of  851 points,  6 beta functions with:
                l(1) =   0
                l(2) =   0
                l(3) =   1
                l(4) =   1
                l(5) =   2
                l(6) =   2
     Q(r) pseudized with  8 coefficients,  rinner =    1.000   1.000   1.000
                                                       1.000   1.000

     PseudoPot. # 2 for  O read from file:
     /home/alatimer/bin/psp/esp_psp_w_gbrvRu/O.UPF
     MD5 check sum: e057bbcf3229fb5d8c36c0c92f9568b4
     Pseudo is Ultrasoft + core correction, Zval =  6.0
     Generated using "atomic" code by A. Dal Corso  v.5.0.2 svn rev. 9415
     Using radial grid of 1095 points,  4 beta functions with:
                l(1) =   0
                l(2) =   0
                l(3) =   1
                l(4) =   1
     Q(r) pseudized with 0 coefficients

     PseudoPot. # 3 for  N read from file:
     /home/alatimer/bin/psp/esp_psp_w_gbrvRu/N.UPF
     MD5 check sum: ed8b6a90f28a53b7d71920e7015d2dd6
     Pseudo is Ultrasoft + core correction, Zval =  5.0
     Generated using "atomic" code by A. Dal Corso  v.5.0.2 svn rev. 9415
     Using radial grid of 1085 points,  4 beta functions with:
                l(1) =   0
                l(2) =   0
                l(3) =   1
                l(4) =   1
     Q(r) pseudized with 0 coefficients

     vdW kernel table read from file vdW_kernel_table
     MD5 check sum: 095c7af220d748ca6e76c0b4c6cfb241

     atomic species   valence    mass     pseudopotential
        Ti1           12.00    47.88000     Ti( 1.00)
        O1             6.00    15.99940      O( 1.00)
        N1             5.00    14.00670      N( 1.00)

     Starting magnetic structure
     atomic species   magnetization
        Ti1          0.250
        O1           0.500
        N1           0.600

     No symmetry found

   Cartesian axes

     site n.     atom                  positions (alat units)
         1           Ti1 tau(   1) = (   1.6476770   0.7437786   2.6545865  )
         2           O1  tau(   2) = (   1.6476770   2.2313359   3.9361215  )
         3           Ti1 tau(   3) = (   1.6476770   2.2313359   5.9499405  )
         4           O1  tau(   4) = (   0.3661420   0.7437786   5.9499405  )
         5           Ti1 tau(   5) = (   1.5280591   0.7315068   9.1973351  )
         6           O1  tau(   6) = (   1.6613943   2.1836906  10.6091769  )
         7           Ti1 tau(   7) = (   1.6665780   2.2096385  12.4157880  )
         8           O1  tau(   8) = (   0.4439715   0.7264440  12.7601561  )
         9           Ti1 tau(   9) = (   1.6476770   3.7188931   2.6545865  )
        10           O1  tau(  10) = (   1.6476770   5.2064503   3.9361215  )
        11           Ti1 tau(  11) = (   1.6476770   5.2064503   5.9499405  )
        12           O1  tau(  12) = (   0.3661420   3.7188931   5.9499405  )
        13           Ti1 tau(  13) = (   1.5319291   3.7072436   9.2118370  )
        14           O1  tau(  14) = (   1.6575607   5.2126413  10.6087893  )
        15           Ti1 tau(  15) = (   1.6606453   5.1916961  12.4165775  )
        16           O1  tau(  16) = (   0.4123725   3.7022030  12.5882193  )
        17           O1  tau(  17) = (   1.6476770   2.2313359   1.3730516  )
        18           Ti1 tau(  18) = (   4.9430310   2.2313359   2.6545865  )
        19           O1  tau(  19) = (   4.9430310   2.2313359   4.6684056  )
        20           O1  tau(  20) = (   6.2245660   0.7437786   2.6545865  )
        21           O1  tau(  21) = (   3.6614961   0.7437786   2.6545865  )
        22           Ti1 tau(  22) = (   4.9430310   0.7437786   5.9499405  )
        23           O1  tau(  23) = (   1.6517842   2.2287041   8.0298356  )
        24           O1  tau(  24) = (   4.9430310   2.2313359   7.2314755  )
        25           O1  tau(  25) = (   2.9292120   0.7437786   5.9499405  )
        26           Ti1 tau(  26) = (   4.8605205   2.2076595   9.4238065  )
        27           O1  tau(  27) = (   4.9553550   2.1639423  11.2756624  )
        28           O1  tau(  28) = (   6.2690671   0.7288246   9.2688367  )
        29           O1  tau(  29) = (   3.6660957   0.7249325   9.2867299  )
        30           Ti1 tau(  30) = (   4.9284588   0.7282168  12.7798302  )
        31           O1  tau(  31) = (   4.9953437   2.2216212  13.8477397  )
        32           O1  tau(  32) = (   2.9112183   0.7266397  12.7651274  )
        33           O1  tau(  33) = (   1.6476770   5.2064503   1.3730516  )
        34           Ti1 tau(  34) = (   4.9430310   5.2064503   2.6545865  )
        35           O1  tau(  35) = (   4.9430310   5.2064503   4.6684056  )
        36           O1  tau(  36) = (   6.2245660   3.7188931   2.6545865  )
        37           O1  tau(  37) = (   3.6614961   3.7188931   2.6545865  )
        38           Ti1 tau(  38) = (   4.9430310   3.7188931   5.9499405  )
        39           O1  tau(  39) = (   1.6524867   5.1852222   8.0294571  )
        40           O1  tau(  40) = (   4.9430310   5.2064503   7.2314755  )
        41           O1  tau(  41) = (   2.9292120   3.7188931   5.9499405  )
        42           Ti1 tau(  42) = (   4.8610151   5.1886528   9.4241876  )
        43           O1  tau(  43) = (   4.9550983   5.2107439  11.2753448  )
        44           O1  tau(  44) = (   6.2713562   3.7024388   9.3047907  )
        45           O1  tau(  45) = (   3.6650622   3.7005085   9.3135888  )
        46           Ti1 tau(  46) = (   5.0160509   3.7038162  12.7585864  )
        47           O1  tau(  47) = (   4.9984032   5.1727849  13.8485277  )
        48           O1  tau(  48) = (   2.9655234   3.7049164  12.5317472  )
        49           O1  tau(  49) = (   2.2548149   3.7063572  14.5693114  )
        50           N1  tau(  50) = (   2.4020298   3.6367063  16.9651815  )
        51           N1  tau(  51) = (   2.1425646   3.6919273  15.8611024  )

     number of k points=    40  Fermi-Dirac smearing, width (Ry)=  0.0073
                       cart. coord. in units 2pi/alat
        k(    1) = (   0.0000000   0.0000000   0.0000000), wk =   0.0277778
        k(    2) = (   0.0000000   0.0280101   0.0000000), wk =   0.0555556
        k(    3) = (   0.0000000   0.0560203   0.0000000), wk =   0.0555556
        k(    4) = (   0.0000000  -0.0840304   0.0000000), wk =   0.0277778
        k(    5) = (   0.0252881   0.0000000   0.0000000), wk =   0.0555556
        k(    6) = (   0.0252881   0.0280101   0.0000000), wk =   0.0555556
        k(    7) = (   0.0252881   0.0560203   0.0000000), wk =   0.0555556
        k(    8) = (   0.0252881  -0.0840304   0.0000000), wk =   0.0555556
        k(    9) = (   0.0505763   0.0000000   0.0000000), wk =   0.0555556
        k(   10) = (   0.0505763   0.0280101   0.0000000), wk =   0.0555556
        k(   11) = (   0.0505763   0.0560203   0.0000000), wk =   0.0555556
        k(   12) = (   0.0505763  -0.0840304   0.0000000), wk =   0.0555556
        k(   13) = (  -0.0758644   0.0000000   0.0000000), wk =   0.0277778
        k(   14) = (  -0.0758644   0.0280101   0.0000000), wk =   0.0555556
        k(   15) = (  -0.0758644   0.0560203   0.0000000), wk =   0.0555556
        k(   16) = (  -0.0758644  -0.0840304   0.0000000), wk =   0.0277778
        k(   17) = (  -0.0252881   0.0280101   0.0000000), wk =   0.0555556
        k(   18) = (  -0.0252881   0.0560203   0.0000000), wk =   0.0555556
        k(   19) = (  -0.0505763   0.0280101   0.0000000), wk =   0.0555556
        k(   20) = (  -0.0505763   0.0560203   0.0000000), wk =   0.0555556
        k(   21) = (   0.0000000   0.0000000   0.0000000), wk =   0.0277778
        k(   22) = (   0.0000000   0.0280101   0.0000000), wk =   0.0555556
        k(   23) = (   0.0000000   0.0560203   0.0000000), wk =   0.0555556
        k(   24) = (   0.0000000  -0.0840304   0.0000000), wk =   0.0277778
        k(   25) = (   0.0252881   0.0000000   0.0000000), wk =   0.0555556
        k(   26) = (   0.0252881   0.0280101   0.0000000), wk =   0.0555556
        k(   27) = (   0.0252881   0.0560203   0.0000000), wk =   0.0555556
        k(   28) = (   0.0252881  -0.0840304   0.0000000), wk =   0.0555556
        k(   29) = (   0.0505763   0.0000000   0.0000000), wk =   0.0555556
        k(   30) = (   0.0505763   0.0280101   0.0000000), wk =   0.0555556
        k(   31) = (   0.0505763   0.0560203   0.0000000), wk =   0.0555556
        k(   32) = (   0.0505763  -0.0840304   0.0000000), wk =   0.0555556
        k(   33) = (  -0.0758644   0.0000000   0.0000000), wk =   0.0277778
        k(   34) = (  -0.0758644   0.0280101   0.0000000), wk =   0.0555556
        k(   35) = (  -0.0758644   0.0560203   0.0000000), wk =   0.0555556
        k(   36) = (  -0.0758644  -0.0840304   0.0000000), wk =   0.0277778
[...]
     atom:   36    charge:    2.0847    magn:   -0.0001    constr:    0.0000
     atom:   37    charge:    2.0847    magn:   -0.0001    constr:    0.0000
     atom:   38    charge:    3.1197    magn:   -0.0000    constr:    0.0000
     atom:   39    charge:    2.0912    magn:    0.0001    constr:    0.0000
     atom:   40    charge:    2.0777    magn:    0.0001    constr:    0.0000
     atom:   41    charge:    2.0869    magn:    0.0000    constr:    0.0000
     atom:   42    charge:    3.1181    magn:   -0.0001    constr:    0.0000
     atom:   43    charge:    2.0838    magn:    0.0002    constr:    0.0000
     atom:   44    charge:    2.0865    magn:    0.0001    constr:    0.0000
     atom:   45    charge:    2.0871    magn:    0.0001    constr:    0.0000
     atom:   46    charge:    3.1171    magn:   -0.0001    constr:    0.0000
     atom:   47    charge:    2.0795    magn:    0.0003    constr:    0.0000
     atom:   48    charge:    2.0835    magn:    0.0002    constr:    0.0000
     atom:   49    charge:    2.0518    magn:   -0.0000    constr:    0.0000
     atom:   50    charge:    1.2557    magn:   -0.0000    constr:    0.0000
     atom:   51    charge:    1.2855    magn:    0.0000    constr:    0.0000

     total energy              =   -3044.96902659 Ry
     Harris-Foulkes estimate   =   -3044.97536632 Ry
     estimated scf accuracy    <       0.04543578 Ry

     total magnetization       =     0.00 Bohr mag/cell
     absolute magnetization    =     0.01 Bohr mag/cell

[...]

     total energy              =   -3044.95657647 Ry
     Harris-Foulkes estimate   =   -3044.95657654 Ry
     estimated scf accuracy    <       0.00000134 Ry

[...]

     iteration #  9     ecut=    40.42 Ry     beta=0.10
     Davidson diagonalization with overlap
     ethr =  3.34E-10,  avg # of iterations =  2.0

     negative rho (up, down):  1.158E-02 1.158E-02

     Magnetic moment per site:
     atom:    1    charge:    3.1250    magn:   -0.0000    constr:    0.0000
     atom:    2    charge:    2.0894    magn:    0.0000    constr:    0.0000
     atom:    3    charge:    3.1196    magn:   -0.0000    constr:    0.0000
     atom:    4    charge:    2.0870    magn:    0.0000    constr:    0.0000
     atom:    5    charge:    3.1170    magn:   -0.0000    constr:    0.0000
     atom:    6    charge:    2.0917    magn:    0.0000    constr:    0.0000
     atom:    7    charge:    3.1185    magn:   -0.0000    constr:    0.0000
     atom:    8    charge:    2.0815    magn:    0.0000    constr:    0.0000
     atom:    9    charge:    3.1250    magn:   -0.0000    constr:    0.0000
     atom:   10    charge:    2.0894    magn:    0.0000    constr:    0.0000
     atom:   11    charge:    3.1196    magn:   -0.0000    constr:    0.0000
     atom:   12    charge:    2.0870    magn:    0.0000    constr:    0.0000
     atom:   13    charge:    3.1148    magn:   -0.0000    constr:    0.0000
     atom:   14    charge:    2.0912    magn:    0.0000    constr:    0.0000
     atom:   15    charge:    3.1194    magn:   -0.0000    constr:    0.0000
     atom:   16    charge:    2.0883    magn:    0.0000    constr:    0.0000
     atom:   17    charge:    2.0624    magn:    0.0000    constr:    0.0000
     atom:   18    charge:    3.1239    magn:   -0.0000    constr:    0.0000
     atom:   19    charge:    2.0878    magn:   -0.0000    constr:    0.0000
     atom:   20    charge:    2.0847    magn:   -0.0000    constr:    0.0000
     atom:   21    charge:    2.0847    magn:   -0.0000    constr:    0.0000
     atom:   22    charge:    3.1197    magn:   -0.0000    constr:    0.0000
     atom:   23    charge:    2.0908    magn:    0.0000    constr:    0.0000
     atom:   24    charge:    2.0777    magn:    0.0000    constr:    0.0000
     atom:   25    charge:    2.0869    magn:    0.0000    constr:    0.0000
     atom:   26    charge:    3.1165    magn:   -0.0000    constr:    0.0000
     atom:   27    charge:    2.0824    magn:    0.0000    constr:    0.0000
     atom:   28    charge:    2.0879    magn:    0.0000    constr:    0.0000
     atom:   29    charge:    2.0877    magn:    0.0000    constr:    0.0000
     atom:   30    charge:    3.1168    magn:   -0.0000    constr:    0.0000
     atom:   31    charge:    2.0815    magn:    0.0000    constr:    0.0000
     atom:   32    charge:    2.0842    magn:    0.0000    constr:    0.0000
     atom:   33    charge:    2.0624    magn:    0.0000    constr:    0.0000
     atom:   34    charge:    3.1239    magn:   -0.0000    constr:    0.0000
     atom:   35    charge:    2.0878    magn:   -0.0000    constr:    0.0000
     atom:   36    charge:    2.0847    magn:   -0.0000    constr:    0.0000
     atom:   37    charge:    2.0847    magn:   -0.0000    constr:    0.0000
     atom:   38    charge:    3.1197    magn:   -0.0000    constr:    0.0000
     atom:   39    charge:    2.0912    magn:    0.0000    constr:    0.0000
     atom:   40    charge:    2.0777    magn:    0.0000    constr:    0.0000
     atom:   41    charge:    2.0869    magn:    0.0000    constr:    0.0000
     atom:   42    charge:    3.1181    magn:   -0.0000    constr:    0.0000
     atom:   43    charge:    2.0838    magn:    0.0000    constr:    0.0000
     atom:   44    charge:    2.0865    magn:    0.0000    constr:    0.0000
     atom:   45    charge:    2.0871    magn:    0.0000    constr:    0.0000
     atom:   46    charge:    3.1171    magn:   -0.0000    constr:    0.0000
     atom:   47    charge:    2.0796    magn:    0.0000    constr:    0.0000
     atom:   48    charge:    2.0835    magn:    0.0000    constr:    0.0000
     atom:   49    charge:    2.0518    magn:    0.0000    constr:    0.0000
     atom:   50    charge:    1.2578    magn:   -0.0000    constr:    0.0000
     atom:   51    charge:    1.2854    magn:    0.0000    constr:    0.0000

     End of self-consistent calculation

 ------ SPIN UP ------------

          k = 0.0000 0.0000 0.0000 ( 34665 PWs)   bands (ev):

   -57.8238 -57.7889 -57.5142 -57.4586 -57.3905 -57.3543 -57.2794 -57.2440
   -57.1817 -57.1464 -57.1185 -57.0831 -56.8853 -56.8132 -56.2859 -56.2506
   -34.2602 -34.1050 -34.0764 -34.0610 -34.0254 -33.9310 -33.8703 -33.8663
   -33.8285 -33.7728 -33.7345 -33.7242 -33.7202 -33.6890 -33.6730 -33.6695
   -33.6503 -33.6408 -33.6199 -33.5579 -33.5272 -33.4614 -33.4607 -33.4401
   -33.4331 -33.4305 -33.3891 -33.3843 -33.3797 -33.3617 -33.3573 -33.3370
   -33.3144 -33.3084 -33.2807 -33.2753 -33.2498 -33.1465 -33.1417 -33.0850
   -33.0406 -32.9397 -32.7046 -32.6370 -32.6110 -32.5085 -32.4168 -32.3086
   -24.2357 -20.9958 -18.1775 -17.9763 -17.7534 -17.6313 -17.4971 -17.4955
   -17.2136 -17.1928 -17.1477 -17.0553 -17.0527 -17.0108 -16.9955 -16.9224
   -16.8751 -16.8631 -16.8412 -16.8003 -16.7378 -16.6913 -16.5738 -16.5503
   -16.5224 -16.5104 -16.4229 -16.3127 -16.2773 -16.2460 -16.1093 -16.0794
   -14.8681 -14.7833  -9.7943  -7.4784  -7.4634  -5.9973  -5.5693  -5.5124
    -5.3619  -5.3538  -5.2962  -4.9989  -4.9394  -4.5895  -4.5855  -4.5502
    -4.5409  -4.4931  -4.3684  -4.2723  -4.2238  -4.2061  -4.1714  -4.1687
    -4.1645  -4.1565  -4.0917  -4.0870  -4.0107  -3.9880  -3.9568  -3.9152
    -3.8816  -3.8089  -3.7747  -3.7504  -3.7211  -3.6447  -3.6236  -3.5476
    -3.5459  -3.5203  -3.4529  -3.3343  -3.2034  -3.1681  -3.0647  -3.0059
    -2.9625  -2.8779  -2.8225  -2.8159  -2.7437  -2.7424  -2.7263  -2.6010
    -2.5636  -2.5082  -2.4364  -2.4004  -2.3725  -2.3538  -2.3254  -2.2839
    -2.2783  -2.2491  -2.2124  -2.1809  -2.1765  -2.0513  -1.9940  -1.8950
    -1.7525  -1.7500  -1.7236  -1.6819  -1.6544  -1.6429  -1.5655  -1.5442
    -1.4438  -1.4345  -1.4110  -1.4001  -1.3867  -1.2852  -1.2340  -1.2241
    -1.2031  -1.1342  -1.0737  -1.0181  -0.9190  -0.7447  -0.7149  -0.7108
    -0.6477  -0.5201  -0.3726  -0.2360  -0.1736  -0.0093   0.1174   0.1325
     1.5181   1.5470   1.8317   1.8684   1.8803   1.9001   2.0677   2.0873
     2.1217   2.2381   2.3574   2.3711   2.4065   2.4255   2.4625   2.4775
     2.5255   2.5627   2.6155   2.6599   2.6662   2.6782   2.7598   2.8053
     2.8663   2.8937   2.9857   2.9942   2.9954   3.0170   3.0637   3.0809
     3.0919   3.0961   3.1039   3.1384   3.2344   3.2970   3.3001   3.3136
     3.3521   3.3825   3.4163   3.5298   3.5329   3.6697   3.8770   3.9831
     3.9937   4.0422   4.0615   4.1789   4.2519   4.4588   4.5339   4.6563
     4.9050   4.9323   5.0103   5.1259   5.2051   5.3886   5.3942   5.4206
     5.4954   5.5811   5.6274   5.6360   5.7138   5.7312   5.7364   5.7554
     5.9210   5.9600   6.0103   6.0189   6.0969   6.1414   6.2039   6.2188
     6.4734   6.6168   6.7683   6.7839   6.8801   7.1628   7.2762   7.2925
     7.9109   7.9877   8.1607   8.4063   8.7024   8.9113   8.9139   8.9543
     9.2123   9.2587   9.2851   9.3541

[...]

          k =-0.0759 0.0000 0.0000 ( 34758 PWs)   bands (ev):

[...]

 ------ SPIN DOWN ----------

[...]

          k = 0.0506-0.0840 0.0000 ( 34628 PWs)   bands (ev):

[...]

          k =-0.0506 0.0560 0.0000 ( 34596 PWs)   bands (ev):

   -57.8151 -57.7977 -57.5094 -57.4634 -57.3821 -57.3629 -57.2706 -57.2529
   -57.1731 -57.1552 -57.1098 -57.0920 -56.8816 -56.8172 -56.2773 -56.2596
   -34.1658 -34.0977 -34.0834 -34.0004 -33.9706 -33.9649 -33.9544 -33.8063
   -33.7767 -33.7664 -33.7525 -33.7148 -33.7067 -33.6941 -33.6796 -33.6762
   -33.5918 -33.5793 -33.5767 -33.5380 -33.5368 -33.5168 -33.4836 -33.4643
   -33.4531 -33.4396 -33.4083 -33.3824 -33.3813 -33.3691 -33.3612 -33.3574
   -33.3414 -33.3285 -33.3049 -33.3025 -33.2677 -33.1472 -33.1353 -33.0880
   -33.0585 -33.0354 -32.6325 -32.6170 -32.6080 -32.4861 -32.4401 -32.4103
   -24.2356 -20.9953 -17.8735 -17.6280 -17.4537 -17.4318 -17.4135 -17.3410
   -17.3015 -17.2696 -17.1974 -17.1643 -17.0936 -17.0737 -17.0082 -16.9864
   -16.9840 -16.9154 -16.9054 -16.8411 -16.8013 -16.7747 -16.7076 -16.6619
   -16.5597 -16.4579 -16.4143 -16.3158 -16.3143 -16.2861 -16.2492 -16.1833
   -14.8934 -14.8571  -9.7916  -7.4829  -7.4625  -5.9933  -5.2155  -4.7835
    -4.7327  -4.7232  -4.6855  -4.6490  -4.6386  -4.6017  -4.4969  -4.4786
    -4.4537  -4.4376  -4.3461  -4.2938  -4.2768  -4.2715  -4.2295  -4.2092
    -4.1846  -4.1723  -4.1583  -4.1313  -4.0783  -4.0413  -4.0303  -4.0005
    -3.9451  -3.8853  -3.8198  -3.7843  -3.6816  -3.6527  -3.5096  -3.4834
    -3.4657  -3.3980  -3.3797  -3.2032  -3.1153  -3.0770  -3.0283  -2.9859
    -2.9604  -2.9120  -2.8914  -2.8562  -2.8086  -2.7670  -2.7130  -2.7081
    -2.6349  -2.6197  -2.5914  -2.5153  -2.4855  -2.4674  -2.4499  -2.4279
    -2.3999  -2.3577  -2.2878  -2.2752  -2.2509  -2.2249  -2.1782  -2.1645
    -2.0928  -2.0533  -2.0228  -1.9813  -1.9358  -1.8546  -1.7866  -1.7706
    -1.7026  -1.6025  -1.5289  -1.4837  -1.4498  -1.3716  -1.3354  -1.2275
    -1.1744  -1.1362  -1.0925  -1.0310  -0.9871  -0.9232  -0.9104  -0.8331
    -0.7990  -0.7847  -0.6562  -0.4655  -0.0542  -0.0171  -0.0037   0.0523
     1.7396   1.9356   1.9567   2.0177   2.0742   2.1138   2.1234   2.1768
     2.2236   2.2711   2.3861   2.4230   2.4312   2.4570   2.4764   2.5019
     2.5954   2.6110   2.6446   2.6673   2.6957   2.7280   2.7931   2.8230
     2.8939   2.9063   2.9461   2.9773   3.0260   3.0650   3.1911   3.2190
     3.2366   3.2668   3.3144   3.3280   3.3713   3.3890   3.4067   3.4680
     3.5456   3.5810   3.6101   3.6903   3.7408   3.7712   3.7813   3.7976
     3.8393   3.9720   4.0242   4.1508   4.2102   4.4525   4.6478   4.6785
     4.7504   4.7530   4.8977   5.0024   5.0743   5.1421   5.2115   5.2367
     5.3080   5.4660   5.5678   5.6354   5.6981   5.7411   5.8321   5.9722
     6.0147   6.1166   6.1669   6.2110   6.2566   6.3050   6.4678   6.4861
     6.5512   6.5925   6.6514   6.6827   6.8412   6.8683   6.9770   7.3068
     7.3294   7.7304   7.7640   8.0195   8.0984   8.1777   8.5794   8.6734
     8.8452   8.9098   9.1437   9.3668

     the Fermi energy is     0.8659 ev

!    total energy              =   -3044.95657630 Ry
     Harris-Foulkes estimate   =   -3044.95657654 Ry
     estimated scf accuracy    <       0.00000038 Ry

     The total energy is the sum of the following terms:

     one-electron contribution =  -40855.47626409 Ry
     hartree contribution      =   20500.05246766 Ry
     xc contribution           =    -557.16131523 Ry
     ewald contribution        =   17867.62874097 Ry
     smearing contrib. (-TS)   =      -0.00020561 Ry

     total magnetization       =     0.00 Bohr mag/cell
     absolute magnetization    =     0.00 Bohr mag/cell

     convergence has been achieved in   9 iterations

     Forces acting on atoms (Ry/au):

     negative rho (up, down):  1.158E-02 1.158E-02
     atom    1 type  1   force =    -0.00008304    0.00030618   -0.13600399
     atom    2 type  2   force =     0.00010502   -0.00008036    0.07517644
     atom    3 type  1   force =     0.00126845    0.00108885   -0.05988221
     atom    4 type  2   force =     0.00661163   -0.00006944    0.00968418
     atom    5 type  1   force =    -0.00131994   -0.00013696   -0.00003885
     atom    6 type  2   force =    -0.00184035   -0.00353018   -0.00897333
     atom    7 type  1   force =     0.01101484    0.00791037   -0.01675298
     atom    8 type  2   force =     0.00049062   -0.00011985    0.00062819
     atom    9 type  1   force =     0.00013048    0.00035228   -0.13607566
     atom   10 type  2   force =     0.00016559   -0.00003510    0.07512203
     atom   11 type  1   force =     0.00126438   -0.00086415   -0.06000905
     atom   12 type  2   force =     0.00604979   -0.00011177    0.00855137
     atom   13 type  1   force =     0.00013671   -0.00016180   -0.00039464
     atom   14 type  2   force =    -0.00201049    0.00294773   -0.00900911
     atom   15 type  1   force =     0.01117354   -0.00780144   -0.01663314
     atom   16 type  2   force =     0.00707881    0.00004922    0.01070620
     atom   17 type  2   force =    -0.00002463   -0.00005785    0.08002000
     atom   18 type  1   force =    -0.00006054    0.00022730    0.11908830
     atom   19 type  2   force =     0.00039052    0.00018807   -0.06811367
     atom   20 type  2   force =    -0.06269295    0.00004972   -0.03209480
     atom   21 type  2   force =     0.06274161    0.00015244   -0.03256371
     atom   22 type  1   force =    -0.00049266   -0.00012837    0.06426735
     atom   23 type  2   force =     0.00015761    0.00061783   -0.00263246
     atom   24 type  2   force =     0.00049527    0.00003864   -0.02240712
     atom   25 type  2   force =    -0.00645344   -0.00025533    0.00824130
     atom   26 type  1   force =    -0.00011768   -0.00005437    0.00250235
     atom   27 type  2   force =     0.00252318   -0.00143154   -0.00240743
     atom   28 type  2   force =    -0.00003818   -0.00002083   -0.00148155
     atom   29 type  2   force =     0.00011685   -0.00005878   -0.00053261
     atom   30 type  1   force =     0.00576633    0.00030199   -0.00068081
     atom   31 type  2   force =    -0.00213742    0.00159570    0.00112405
     atom   32 type  2   force =     0.00158625   -0.00006075    0.00185337
     atom   33 type  2   force =     0.00000114    0.00015051    0.08009046
     atom   34 type  1   force =    -0.00007602    0.00023521    0.11909462
     atom   35 type  2   force =     0.00035694    0.00032488   -0.06806477
     atom   36 type  2   force =    -0.06268811    0.00009874   -0.03230078
     atom   37 type  2   force =     0.06285386    0.00017117   -0.03205662
     atom   38 type  1   force =    -0.00069641    0.00000933    0.06410232
     atom   39 type  2   force =     0.00019148   -0.00082095   -0.00261592
     atom   40 type  2   force =     0.00060628   -0.00227833   -0.02256250
     atom   41 type  2   force =    -0.00619870   -0.00030898    0.00764518
     atom   42 type  1   force =    -0.00009942   -0.00008841    0.00249410
     atom   43 type  2   force =     0.00256049    0.00140856   -0.00241744
     atom   44 type  2   force =     0.00036160   -0.00012644   -0.00071532
     atom   45 type  2   force =    -0.00022528   -0.00006093   -0.00095132
     atom   46 type  1   force =    -0.01907510    0.00048284   -0.00502387
     atom   47 type  2   force =    -0.00210447   -0.00144923    0.00105468
     atom   48 type  2   force =    -0.00084953   -0.00083425   -0.02802934
     atom   49 type  2   force =    -0.04849012    0.00385484    0.17939381
     atom   50 type  3   force =    -0.03284075    0.00538399   -0.03657131
     atom   51 type  3   force =     0.06441600   -0.00700007   -0.07284399

     Total force =     0.429711     Total SCF correction =     0.001716
 !ASE

     Writing output data file calc.save

     General routines

     Parallel routines

   This run was terminated on:  12:45:49  10Mar2018

   JOB DONE.